It 4.7565923
Ġwas 2.1731586
Ġcold 6.4815116
, 1.8151016
Ġand 2.3958457
Ġdamp 4.708821
, 0.43374535
Ġand 0.17049544
Ġmiserable 3.3566537
. 0.9808762
ĠA 3.8437479
Ġreasonably 11.488441
Ġnormal 5.0016475
Ġday 0.905235
Ġin 0.7596471
Ġthe 1.385306
Ġsouth 6.117149
Ġeast 4.1311536
Ġof 0.4630654
ĠEngland 0.23513682
Ġaround 7.279188
Ġthis 2.1772819
Ġtime 0.0068059205
Ġof 0.058527686
Ġyear 0.08718424
. 0.3406048
ĠMen 9.730087
Ġand 1.8837069
Ġwomen 0.124856696
Ġin 2.5180771
Ġwhite 6.023034
Ġoverall 2.9257877
s 0.005411859
Ġwere 1.4784147
Ġsc 3.0761929
ouring 4.215183
Ġthe 0.26537925
Ġscene 4.031867
Ġfor 2.188932
Ġevidence 1.3875632
Ġwhilst 5.72283
Ġothers 2.6365063
Ġwere 1.2727536
Ġplanting 8.3566
Ġdown 8.308376
Ġnumber 7.8274317
Ġmarkers 0.9150244
Ġand 1.7058934
Ġtaking 1.9538103
Ġphotos 1.7999784
. 0.6096901
Ġ' 7.335386
In 5.678942
spect 1.381295
or 0.027861308
?' 4.1256804
Ġa 2.4305463
Ġvoice 0.9311327
Ġcut 5.5032897
Ġthrough 0.21084444
Ġthe 0.16836604
Ġstill 4.4881935
Ġmist 5.59272
Ġas 4.997336
ĠGre 12.327921
aves 3.5548813
Ġstomp 8.115079
ed 0.0007299585
Ġup 2.5129921
Ġthe 1.0512036
Ġhill 1.6229833
Ġand 4.0707383
Ġshowed 7.7920012
Ġhis 0.41395578
Ġbadge 1.2073778
Ġto 0.7310038
Ġthe 0.33878356
Ġofficer 1.3100997
Ġman 4.2251635
ning 0.00029020815
Ġthe 0.016846715
Ġpolice 3.077472
Ġtape 0.63787407
. 0.19985694
Ġ' 0.713481
What 2.905496
've 3.538955
Ġwe 0.15703143
Ġgot 0.0024257682
?' 0.30716833
ĠGre 3.065615
aves 0.0034989729
Ġgr 6.4735928
umbled 0.027480166
. 1.3554575
ĠThe 2.0498383
Ġmorning 9.651239
Ġcoffee 5.624815
Ġnot 5.4027386
Ġhaving 1.5447514
Ġkicked 2.0024965
Ġin 0.017978532
Ġquite 2.9123225
Ġyet 0.1945607
Ġand 3.7109218
Ġhe 1.958455
Ġwas 0.69883466
Ġstill 1.9246669
Ġblinking 7.827794
Ġthe 1.2350743
Ġsleep 0.20623799
Ġout 0.8513431
Ġof 0.028373135
Ġhis 0.016382435
Ġeyes 0.07114008
. 0.111919425
Ġ' 0.55168235
Double 5.928514
Ġhomicide 0.622589
' 2.9988084
Ġreplied 2.7661984
Ġthe 0.11538586
Ġofficer 0.38613486
Ġ' 2.1537316
Male 3.7987223
Ġand 0.20482178
Ġfemale 0.19827163
Ġof 6.871878
Ġaround 3.1461039
Ġthe 2.2990618
Ġages 4.9485373
Ġtwenty 4.4151936
. 6.3709564
ĠWe 2.9816523
're 1.4311879
Ġstill 1.5961928
Ġrunning 6.0276475
Ġidentity 4.4308143
Ġchecks 0.5043725
Ġso 4.4098144
Ġfor 4.3330016
Ġnow 0.20162727
Ġthey 1.849624
're 0.40083665
Ġjust 1.5059363
Ġgoing 3.9751756
Ġdown 3.9179375
Ġas 0.055630744
ĠJack 8.26278
Ġand 0.082685776
ĠJill 0.24279457
Ġrespectively 8.535342
. 1.1599802
ĠFore 4.282891
nsics 0.0033282186
Ġhasn 5.4137096
't 0.0016797734
Ġgotten 4.6796103
Ġinto 5.4044766
Ġthe 0.4625998
Ġcause 8.692574
Ġof 0.060246304
Ġdeath 0.030868944
Ġas 3.0857043
Ġthere 5.355143
's 0.83047944
Ġno 1.6855077
Ġapparent 3.4059908
Ġblood 4.0978694
Ġor 2.1944075
Ġwounds 2.5516353
Ġon 1.4401994
Ġthe 0.7374825
Ġindividuals 8.797823
Ġwhich 5.235696
Ġleads 2.9266589
Ġus 0.42638725
Ġto 0.021428706
Ġbelieve 0.259195
Ġit 2.0211415
Ġcould 2.632824
Ġhave 1.697577
Ġpotentially 6.825564
Ġbeen 0.08833438
Ġa 1.0393587
Ġpoisoning 2.3395016
'. 3.1294255
ĠThe 3.3657792
Ġyounger 7.2302923
Ġofficer 0.6697422
Ġtook 3.8381577
Ġoff 3.4933834
Ġher 4.112287
Ġcap 2.390302
Ġand 0.38381758
Ġsmoot 4.8339806
hed 0.013847932
Ġher 1.2911289
Ġblonde 2.9803436
Ġhair 0.13882527
. 2.5232108
ĠGre 1.6911955
aves 0.0014306537
Ġestimated 9.379342
Ġher 0.6822372
Ġto 0.3712515
Ġbe 0.04043604
Ġaround 1.2671431
Ġthe 1.4549931
Ġage 0.634769
Ġof 0.026984472
Ġ30 5.9450936
, 1.4530723
Ġstress 12.548061
Ġlines 1.1339734
Ġaround 1.8528327
Ġher 0.22451687
Ġeyes 0.40161443
Ġsuggested 3.1708844
Ġthat 1.9981685
Ġshe 0.47148362
Ġwasn 2.8913248
't 0.0010596277
Ġgetting 2.0310488
Ġmuch 1.3573112
Ġsleep 0.065259464
. 0.9945085
ĠAs 5.5140185
Ġthey 3.32182
Ġapproached 2.20117
Ġthe 0.09361498
Ġwhite 4.7600975
Ġtent 0.7312434
Ġcovering 3.1174188
Ġthe 0.12326804
Ġbodies 0.86300296
Ġthey 3.504329
Ġwere 1.8163575
Ġintercepted 5.4935
Ġby 0.02219476
Ġa 0.6642626
Ġwell 4.547947
Ġdressed 1.0566742
Ġgentleman 3.264027
. 2.3360486
ĠSw 9.72242
inging 1.5587379
Ġhis 1.1900018
Ġcane 2.2166674
Ġas 2.9163144
Ġhe 0.2201396
Ġwalked 0.53886646
, 1.38963
Ġhis 2.1159687
Ġsuit 3.1976223
Ġappearing 6.6093264
Ġsurprisingly 8.547021
Ġdry 3.7620387
Ġconsidering 1.6715235
Ġthe 0.29027316
Ġweather 0.72273934
. 0.601056
ĠHe 2.475719
Ġreached 4.543745
Ġhis 3.6809475
Ġhand 0.3560093
Ġout 0.11187896
Ġto 0.531183
Ġshake 2.6460574
Ġthe 3.2712858
ĠInspect 4.034637
ors 0.005503374
Ġand 2.0374582
Ġsmiled 3.3510327
Ġa 3.0663779
Ġto 1.6974014
othy 0.0089135645
, 3.6514416
Ġwell 4.1142445
Ġpracticed 2.3215675
Ġgrin 2.016492
. 0.18821526
Ġ' 0.29340726
Ah 3.1371193
! 3.6079638
ĠInspector 0.47477546
, 4.0375695
ĠI 1.594612
Ġwas 2.4694664
Ġhoping 1.3562367
Ġto 1.1730952
Ġmeet 2.307389
Ġyou 0.100513734
Ġbefore 4.640359
Ġwe 2.4673226
Ġgot 1.6587813
Ġto 2.583253
Ġthe 1.0336926
Ġuh 10.020149
... 1.2092284
' 2.2004292
ĠHe 2.749914
Ġpaused 2.384685
Ġfor 1.9811003
Ġa 0.40572873
Ġmoment 0.41722786
, 1.6734755
Ġhis 2.8115027
Ġeyes 0.7228639
Ġdart 1.6976975
ing 0.00029295182
Ġto 1.5513295
Ġthe 0.12104748
Ġtent 1.8764048
Ġfor 4.5156717
Ġa 0.14249058
Ġsecond 1.1712735
Ġ`` 16.002281
... 1.6002376
ĠG 9.2548685
rist 6.179508
ly 0.5049851
Ġdetails 2.188367
. 1.6547724
ĠI 0.9860996
'll 5.169043
Ġbe 1.4374154
Ġworking 4.357288
Ġwith 0.92735225
Ġyou 0.1765269
Ġon 0.30411547
Ġthis 0.087728724
Ġcase 0.5197275
. 1.986596
ĠMy 1.3236716
Ġname 0.030588116
's 1.9116161
ĠGregory 5.33288
, 2.8598328
ĠGregory 0.38356668
ĠCoff 9.618646
yn 5.5109944
. 1.4034191
ĠI 0.7168442
'm 0.6182562
Ġone 4.6732407
Ġof 0.0047816103
Ġthe 0.3769345
ĠAb 10.044082
led 8.22569
.' 4.8684244
ĠThe 2.7681437
' 12.835514
Ab 3.2149475
led 0.026348017
' 0.6655807
Ġas 3.5891163
Ġthey 0.41840616
'd 5.651381
Ġcome 0.8669919
Ġto 0.005896675
Ġhave 9.01109
Ġbeen 0.823809
Ġknown 1.2577087
Ġwere 1.1134399
Ġsomething 6.6968665
Ġthat 1.5676448
Ġstill 5.795748
Ġremained 3.9055328
Ġto 4.8008327
Ġbe 0.096496426
Ġa 3.1612296
Ġmystery 0.79217213
Ġto 0.83372563
Ġmodern 6.151003
Ġscience 1.7287416
. 0.18406452
ĠThroughout 7.990979
Ġhistory 0.9120698
Ġdespite 9.746591
Ġthe 1.1502346
Ġadvances 3.4613466
Ġin 0.6137882
Ġtechnology 1.2310561
, 1.3636371
Ġmedicine 1.4668254
Ġand 0.39750412
Ġthe 2.5219162
Ġphysical 6.6093726
Ġsciences 1.0957111
Ġthe 2.1734676
ĠAb 2.0440903
led 0.011745523
Ġhad 0.94259614
Ġbeen 1.9854765
Ġvery 5.841488
Ġmuch 1.0966792
Ġon 4.692411
Ġthe 0.3073869
Ġparanormal 9.091382
Ġend 4.235594
Ġof 0.025024684
Ġthings 2.1491947
. 0.20233457
ĠU 7.786855
nex 0.08825593
pl 0.707583
ained 0.010376357
Ġoccurrences 2.9612327
Ġsuch 2.6918688
Ġas 0.00513353
Ġfloating 6.1960964
Ġlights 3.8863277
, 0.39381912
Ġsounds 6.325284
Ġthat 2.5143976
Ġhad 4.324035
Ġno 0.35807285
Ġsource 1.1188495
Ġand 0.9645083
Ġfloating 6.981463
Ġobjects 1.3492409
Ġtended 7.1640615
Ġto 0.010822978
Ġbe 1.0528586
Ġmanifestations 9.213181
Ġof 0.07943365
Ġsuch 6.3953176
Ġindividuals 2.7662947
. 0.19106263
ĠThe 2.349751
Ġmajority 4.430392
Ġof 0.2072322
Ġthem 1.936232
Ġwere 1.068306
Ġunable 5.534249
Ġto 0.04518961
Ġcorrectly 9.21616
Ġatt 10.71674
une 0.0052036275
Ġthemselves 0.98605114
Ġbefore 8.398581
Ġmaturity 8.777959
Ġand 1.2870055
Ġas 2.1900058
Ġa 1.2841692
Ġresult 0.07663159
Ġwere 1.9243442
Ġnever 4.2771163
Ġquite 4.250083
Ġable 0.8394626
Ġto 0.0086120805
Ġget 3.567795
Ġa 1.542102
Ġgrasp 1.5343484
Ġon 0.3625549
Ġtheir 0.6581343
Ġabilities 0.7887292
. 0.30916083
ĠHowever 3.1759803
Ġthose 3.6322503
Ġthat 0.7074438
Ġdid 0.95219415
Ġbecame 5.065654
Ġextraordinarily 6.1625657
Ġtalented 3.8229134
Ġin 1.4845581
Ġwhatever 2.607917
Ġspecial 5.3535438
ties 3.6487823
Ġthey 0.19289985
Ġfocused 3.9242725
Ġthemselves 3.8313043
Ġon 0.8311935
. 0.20212378
ĠThey 3.6212316
Ġalso 3.6322544
Ġbecame 2.1623135
Ġa 2.988511
Ġgreat 3.7548568
Ġasset 1.3064706
, 5.1594634
Ġor 2.1995504
Ġa 1.2487241
Ġgreater 5.2778163
Ġthreat 1.2447791
. 4.6671557
Ġ' 3.43741
Ah 3.4296277
!' 4.3439484
ĠSm 8.259143
iled 0.076104626
ĠGre 0.73841566
aves 0.00055699435
Ġ' 1.0842427
and 6.2079663
Ġwhat 0.82380885
's 2.8106506
Ġyour 0.4430824
Ġpar 10.026655
lor 2.6868007
Ġtrick 0.014262848
? 2.1921384
'. 3.2271757
ĠGregory 1.9415503
Ġraised 3.8436728
Ġan 0.70290965
Ġeyebrow 0.014032398
Ġand 1.3797321
Ġpurs 4.661698
ed 0.0015858605
Ġhis 0.0032084396
Ġlips 0.029177668
Ġas 3.0301669
Ġhe 1.2491264
Ġassessed 6.9069653
Ġthe 0.5029718
Ġdetective 3.1326418
. 0.5510398
ĠHe 2.3457022
Ġstared 6.7734146
Ġat 1.4294895
ĠGre 0.9188355
aves 0.0009192403
Ġfor 0.5397046
Ġa 0.19602476
Ġmoment 0.86240107
Ġbefore 1.0590309
Ġfinally 4.2242274
, 6.4032693
Ġalmost 3.1244433
Ġreluctantly 0.6356426
Ġadmitting 5.4339123
Ġ' 0.672751
I 1.0890216
'm 1.1481937
Ġgood 4.1615515
Ġwith 0.49938247
Ġtime 4.560521
'. 0.7670834
ĠGre 0.92576045
aves 0.0055696643
Ġmade 6.220887
Ġa 0.33220154
Ġface 2.1410723
Ġ' 2.3225427
Time 1.2137684
?' 1.5063354
Ġhe 1.2697589
Ġasked 1.6599158
Ġapparently 9.732913
Ġun 2.098817
imp 0.12210244
ressed 0.00023392851
Ġat 5.0545306
Ġthe 0.6276447
Ġexplanation 5.285948
. 0.42414537
Ġ' 0.6065224
Can 6.264789
Ġyou 0.53185755
Ġmaybe 6.2859426
Ġun 8.099282
pack 0.6888748
Ġthat 0.049312755
Ġfor 1.4537153
Ġme 0.0738388
? 1.8647077
ĠUs 10.215952
Ġnormal 2.1553504
Ġfolk 0.65129775
Ġdon 1.1742371
't 0.0025763474
Ġquite 2.4597201
Ġunderstand 1.4598082
Ġwhatever 8.398118
Ġwitchcraft 7.106864
, 7.1464953
Ġsorcery 2.0167208
Ġor 0.3143941
Ġmagic 3.4371386
Ġyou 1.0990446
Ġmight 4.1944833
Ġdo 3.114281
'. 2.2322571
ĠGregory 0.419409
Ġshifted 5.6418447
Ġuncom 1.2705498
fort 0.00014647158
ably 0.0013165927
Ġand 1.7204188
Ġlooked 2.2660902
Ġdown 2.473797
Ġat 0.25836977
Ġhis 0.48130742
Ġshoes 1.0200328
Ġwhilst 4.774614
Ġtapping 4.2972264
Ġhis 0.3148873
Ġcane 0.2001587
Ġon 1.1884466
Ġthe 0.0354578
Ġgrass 3.3222435
. 0.35634083
ĠHe 2.1705148
Ġpulled 5.304947
Ġout 1.2991703
Ġa 0.28799772
Ġpair 3.7622285
Ġof 0.00488966
Ġgloves 3.8798244
Ġfrom 0.62685454
Ġhis 0.14743087
Ġpocket 0.7489648
, 2.5715659
Ġrunes 15.427685
Ġse 4.2125144
wn 0.113629475
Ġinto 0.30202973
Ġthe 0.16387679
Ġfabric 1.6308173
. 2.298893
ĠGold 9.476013
Ġthread 1.4728743
Ġwe 4.7114406
aved 0.004402813
Ġinto 1.4547259
Ġthe 0.49013263
Ġsoft 5.9727764
Ġleather 0.91142845
Ġforming 5.9758058
Ġintricate 2.1094108
Ġsymbols 2.8954933
Ġof 3.0920632
Ġpower 1.8149247
Ġthat 3.555534
Ġhelped 5.496442
Ġthe 3.08975
ĠAb 3.579894
led 0.00844406
Ġfocus 1.9841374
Ġtheir 0.3375396
Ġtalents 5.0077877
. 0.24694508
Ġ' 1.261067
How 6.056332
Ġabout 1.5879788
Ġwe 1.1478484
Ġget 2.184814
Ġto 1.9813936
Ġit 3.222207
Ġand 2.9391725
ĠI 0.6453942
'll 0.47074145
Ġdemonstrate 3.6651945
Ġas 4.199359
Ġwe 0.31803265
Ġgo 0.18685365
' 2.0878818
ĠS 8.957371
ighed 0.39184117
ĠGregory 0.41331363
Ġas 1.5044049
Ġhe 0.10055889
Ġlifted 5.464658
Ġhis 2.5055523
Ġcane 1.9125162
Ġto 2.4748473
Ġindicate 5.3046107
Ġthe 0.5348462
Ġtent 0.6412733
Ġ' 2.4907348
after 3.1766243
Ġyou 0.54354125
'. 0.9169466
ĠGre 1.1640823
aves 0.0046751904
Ġgrun 3.9975545
ted 0.0016895044
Ġand 0.71678567
Ġstomp 5.8680897
ed 0.0013250668
Ġover 2.8631825
Ġto 0.26740652
Ġthe 0.047996033
Ġtent 0.49627438
. 1.2918015
ĠHe 1.3678908
Ġlifted 2.912648
Ġup 2.3493893
Ġthe 0.09778043
Ġcanvas 3.7223077
Ġflap 0.88058704
Ġand 0.25746974
Ġstepped 2.058969
Ġinside 0.59892774
. 0.61204374
Ġ( 9.957297
ĠI 8.002862
'll 2.4441984
Ġprobably 3.7855196
Ġfinish 5.509809
Ġthis 0.290732
Ġup 1.8737981
Ġwhen 3.2897708
ĠI 0.10972862
Ġget 0.7732958
Ġhome 0.57888174
Ġfrom 1.6158582
Ġwork 0.16318066
) 3.2697675
