The 2.598347
Ġclock 8.58963
Ġtick 3.27117
ed 0.10182028
Ġa 5.2878933
- 6.5668077
rh 7.869287
ythm 0.29161435
ically 7.405636
Ġand 3.0021622
Ġuncom 9.981997
fort 0.010632475
ably 0.002027792
Ġwhile 5.204768
Ġthe 2.018693
ĠHR 11.437666
Ġrep 7.721371
Ġcontracted 11.9630995
Ġout 7.0668383
Ġfor 5.291812
Ġrecruitment 12.364136
Ġleaf 15.830797
ed 6.8144903
Ġthrough 3.0145648
Ġthe 0.74040806
Ġapplication 8.701193
Ġand 2.9232605
Ġresume 9.439501
Ġwith 6.1296477
Ġa 1.424521
Ġdegree 7.280726
Ġof 0.01851951
Ġhumming 10.346115
Ġand 2.2725577
Ġteeth 8.9876
Ġwhist 8.157348
ling 0.06531628
. 0.63951296
ĠThe 1.9766186
Ġroom 6.953175
Ġwas 0.96949565
Ġslightly 6.5537477
Ġtoo 4.0469847
Ġcold 3.1978266
, 1.8308209
Ġthe 1.701837
Ġrep 8.993842
Ġhas 8.072693
Ġadjusted 7.4531336
Ġit 3.263922
Ġdown 4.423036
Ġand 3.0808175
Ġwas 4.3080845
Ġdressed 7.475876
Ġaccordingly 6.222896
Ġwith 3.3897789
Ġthe 2.2116766
Ġapplicant 11.681371
Ġfeeling 6.06455
Ġthe 2.1045241
Ġchill 3.375326
Ġdressed 10.685855
Ġas 3.0707328
Ġhe 2.9430542
Ġwas 1.4491129
Ġfor 4.767922
Ġthe 1.0248663
Ġsubt 10.542565
rop 1.8432449
ics 2.6688404
. 0.6610593
ĠSub 9.017169
t 2.1139998
ly 1.427736
Ġlooking 5.062438
Ġabout 4.9778786
Ġthe 1.1897882
Ġroom 0.6744116
Ġhe 2.074463
Ġnoticed 1.7778184
Ġhow 5.2875338
Ġnothing 7.035078
Ġwas 1.1849902
Ġquite 3.7031639
Ġcomfortable 5.8634195
, 1.8772204
Ġfrom 5.59246
Ġthe 0.3037028
Ġflickering 7.77847
Ġlight 2.4567468
, 3.345328
Ġthe 0.8896578
Ġclock 6.1973577
Ġtick 2.9648705
Ġand 2.6110582
Ġthe 0.47954524
Ġchair 6.4095345
Ġwhich 4.3795085
Ġpin 9.769195
ched 0.03942294
Ġin 3.5729122
Ġplaces 6.7108626
Ġexcept 10.11328
Ġfor 0.7985319
Ġthe 0.46233982
Ġrep 5.435637
's 2.562174
Ġchair 4.1783624
Ġwhich 1.456105
Ġlooked 4.5463347
Ġdiscrete 10.268914
ly 0.4584076
Ġluxurious 5.774423
. 0.9846793
Ġ' 6.9530277
Well 4.0042152
, 1.2246518
Ġthat 3.2336268
's 0.72855717
Ġall 2.7139485
Ġin 4.5994973
Ġorder 3.1980455
. 2.257075
ĠYour 5.341167
Ġtax 7.875548
Ġforms 3.1961186
Ġare 0.89542043
Ġaltogether 11.256259
, 5.3919215
ĠID 12.111837
Ġchecks 5.9943504
Ġout 4.1078873
Ġand 1.8794369
Ġthe 2.3936784
Ġreferees 9.937219
ĠI 6.374834
've 2.2513986
Ġcalled 4.0028296
Ġhave 1.9003867
Ġmostly 8.726697
Ġconfirmed 3.5884082
Ġeverything 3.0948956
' 5.2199364
Ġ' 3.120265
mostly 13.264151
bytes:\xe2\x80 8.116096
bytes:\xbd 8.337588
' 2.4835668
Ġexclaimed 6.165207
Ġthe 0.34131244
Ġapplicant 3.0698771
Ġquizz 8.944375
ically 0.0485862
. 0.7023174
Ġ' 0.4964044
oh 6.615812
Ġdon 5.181389
't 0.023646774
Ġfret 5.38915
, 1.5016245
Ġjust 4.055824
Ġtwo 5.9193835
Ġdidn 11.079096
't 0.010674344
Ġreturn 6.3188314
Ġmy 3.2961867
Ġphone 2.9911416
Ġcalls 0.98681134
. 1.9580499
ĠBut 4.3120656
Ġi 6.535817
Ġfollowed 8.9400835
Ġup 0.7255833
, 3.804585
ĠThe 9.410953
Ġuh 11.474559
ĠReg 8.820172
urg 8.322146
it 2.4404924
ator 0.087103926
Ġapparently 8.104923
Ġpassed 5.9049115
Ġon 2.932443
ĠBlood 12.606148
ĠIsland 7.7346873
Ġafter 5.3494678
Ġa 2.2666767
Ġrun 5.4812527
Ġin 1.5529343
Ġwith 0.32692778
Ġa 0.9991391
ĠU 8.201585
. 1.7843581
N 2.4752524
. 0.13414265
Ġtask 8.572535
force 2.1948383
Ġsent 5.1981673
Ġto 1.0048268
Ġrecover 4.918095
Ġthe 1.6456882
Ġwar 7.8476634
head 3.194481
Ġyou 7.0438275
Ġvery 8.811669
Ġsuccessfully 5.1704907
Ġpur 6.848576
lo 2.806447
ined 0.051749714
Ġfrom 1.5531927
Ġthe 0.94917464
ĠRe 7.260039
united 8.09729
ĠRepublic 5.3227816
Ġof 1.5950642
ĠKorea 5.2338786
. 1.0637589
ĠAs 4.991443
Ġfor 2.5098279
ĠThe 5.632134
ĠSt 7.105042
ink 3.9671032
Ġin 7.8454795
ĠFranc 13.713994
hes 5.5615573
c 4.283087
av 3.9165606
ille 0.9483304
Ġthey 5.0655193
Ġvanished 8.534836
Ġthough 6.890235
ĠI 2.5607886
Ġam 3.6788397
Ġinformed 5.3134894
Ġthis 4.717834
Ġwas 1.8238
Ġat 5.656334
Ġthe 0.93095225
Ġsame 5.6627803
Ġtime 0.08218092
Ġone 6.6191053
Ġof 0.44941953
Ġthe 0.7910696
Ġcap 9.6209755
ed 3.5016193
Ġkinds 10.499998
Ġhad 4.771755
Ġan 3.4242163
Ġep 4.4674373
iphany 0.08610532
Ġabout 2.7889366
Ġthe 1.3003587
Ġnature 4.573608
Ġof 0.026987718
Ġmurder 7.7004538
Ġand 1.123549
Ġmorality 9.12268
. 1.478348
ĠSo 4.396731
Ġone 5.6344275
Ġmakes 8.058871
Ġassumptions 6.734191
Ġbut 3.7829344
Ġother 6.210815
Ġsources 6.25996
Ġtell 2.7063677
Ġme 1.4669732
Ġyour 4.974994
Ġwork 5.1335635
Ġwas 2.0525835
Ġcommend 7.997014
able 0.10955469
.' 2.706663
Ġthe 4.945571
Ġrepresentative 5.797981
Ġquickly 7.176156
Ġdrum 10.033848
med 0.051526587
Ġhis 0.841745
Ġfingers 0.4675942
Ġon 0.6162938
Ġthe 0.29396206
Ġdesk 1.0406712
Ġand 1.8286765
Ġappearing 10.736551
Ġto 1.0379431
Ġconsider 5.0628195
Ġsomething 3.490693
. 2.195092
ĠTime 8.69674
Ġtick 3.3556468
ed 0.02658659
Ġslowly 3.9186773
Ġaway 4.5922265
. 2.174554
Ġ' 1.3500764
any 6.541985
way 1.2702856
, 0.7503922
Ġback 4.2459164
Ġto 0.11204689
Ġthe 0.8319877
Ġtask 4.66565
Ġat 4.8433566
Ġhand 0.0067206495
. 1.0413202
ĠNow 4.386857
Ġit 4.423252
's 0.6712326
Ġimportant 5.349446
Ġfor 2.9556453
Ġme 1.5100651
Ġstress 12.672533
Ġthat 1.8339341
Ġthis 2.4298522
Ġwill 4.3455706
Ġbe 0.70451677
Ġa 1.0988781
Ġdifferent 6.834776
Ġarrangement 7.6494746
Ġto 2.5540435
Ġyour 2.8738832
Ġusual 2.291614
Ġfare 7.0549865
. 0.9961017
ĠFull 9.119046
Ġtime 2.0739758
Ġretain 12.071948
ment 4.0356116
Ġwith 2.955094
Ġloyalty 10.24387
Ġclauses 6.133397
Ġopposed 11.732137
Ġto 0.44638175
Ġthe 1.8213634
Ġmore 4.882214
Ġfreelance 8.409524
Ġstyle 4.6040673
Ġof 1.8888637
Ġcontract 5.311494
Ġyou 1.6860003
Ġare 2.5294595
Ġmore 5.302445
Ġfamiliar 1.4595368
Ġwith 0.04720379
. 0.5364413
ĠAnnual 10.795019
Ġpay 3.0228128
Ġwill 3.2868292
Ġseem 8.770054
Ġsmaller 6.7400513
Ġthan 2.2058213
Ġa 4.484533
' 10.270802
good 9.32705
Ġyear 4.476268
' 1.0383241
Ġ' 2.0128925
the 4.4343762
Ġair 8.035722
Ġquotes 5.739817
Ġwent 8.815075
Ġun 5.8727713
- 3.1408317
gest 9.348949
ured 0.2549161
Ġbut 3.2476203
Ġvery 6.747084
Ġmuch 2.8634222
Ġinf 9.571789
lected 0.85905606
. 1.7159936
Ġ' 2.6066618
but 3.8389711
ĠI 3.2924137
Ġthink 3.6955006
Ġyou 1.530148
'll 1.9517195
Ġfind 2.0257075
Ġthe 2.182879
Ġreliable 11.4135065
Ġincome 6.9518027
Ġand 3.0491426
Ġother 5.809616
Ġbenefits 1.0214266
Ġmore 4.5547967
Ġthan 1.2852006
Ġmake 2.410295
Ġup 0.03919784
Ġfor 0.069389515
Ġit 2.2806551
'. 4.924731
ĠT 7.965747
ension 2.995077
Ġin 3.5282881
Ġthe 0.25976396
Ġroom 2.3622348
Ġjumped 7.213338
Ġsuddenly 4.4174805
Ġas 2.5190697
Ġa 2.513586
Ġchrome 11.406621
Ġrevolver 7.8885083
Ġwas 2.5129495
Ġproduce 12.593294
Ġfrom 2.5608675
Ġa 1.5790653
Ġdrawer 2.2658863
Ġin 2.7926369
Ġthe 0.23918062
Ġdesk 2.9684281
Ġand 1.463694
Ġdropped 4.5622745
Ġon 2.383513
Ġthe 0.37784815
Ġtable 2.8849614
. 0.7243807
ĠThe 1.7383124
Ġapplicant 5.143112
Ġbecame 6.6113615
Ġaware 2.1399798
Ġof 0.5962183
Ġa 1.2635113
Ġco 7.703816
pp 2.2590551
ery 0.0445581
Ġtang 4.5914717
Ġto 3.5349085
Ġthe 0.29340637
Ġair 1.3484223
Ġand 1.5697249
Ġtried 5.9268136
Ġnot 2.6979275
Ġto 0.018707817
Ġlook 2.1805701
Ġat 1.294925
Ġthe 0.42893147
Ġwall 6.3687024
Ġbehind 2.0929143
Ġhim 1.1462607
. 0.54801285
Ġ' 1.11823
now 4.6983624
Ġyou 2.8443718
Ġmay 3.001431
Ġknow 5.4760933
Ġme 3.0841208
Ġas 2.336664
ĠThe 1.9119874
ĠRec 7.1201963
ru 1.2545477
iter 0.09253263
Ġand 2.614464
Ġof 5.79501
Ġthe 4.422118
Ġmany 4.6076293
Ġthings 2.287747
Ġi 2.0814383
Ġdo 1.8622725
Ġthis 5.205288
Ġis 1.7628936
Ġmy 2.5177953
Ġtrademark 6.1517215
, 2.691529
Ġyou 4.1547275
Ġdon 4.3760653
't 0.0020659585
Ġhave 1.7706817
Ġa 3.6630604
Ġsay 4.896431
Ġin 0.412878
Ġthis 2.4451075
Ġanymore 5.4087524
Ġand 3.1372802
Ġit 2.9798815
's 0.98295844
Ġup 3.7334495
Ġto 0.025068749
Ġme 1.734963
Ġaccept 10.326451
Ġyou 3.8685899
Ġfor 4.081574
Ġthe 1.5748084
Ġcontract 4.1830316
Ġor 2.9488199
... 6.3954463
Ġterminate 8.823508
Ġit 0.9591139
Ġbefore 5.1341305
Ġit 1.6286438
Ġeven 3.6700134
Ġbegins 0.9497955
.' 2.1739438
