bytes:\xe2\x80 4.979768
bytes:\x9c 0.102625735
Try 8.241176
Ġnot 2.6087453
Ġto 0.04700486
Ġblink 6.867369
. 1.3250631
bytes:\xe2\x80 0.811663
bytes:\x9d 0.0019171288
ĠThe 4.0736833
ĠDet 13.534427
ector 2.0626047
Ġhad 4.3903403
Ġchanged 6.9425817
Ġshape 7.0026608
Ġover 5.9113336
Ġthe 0.4724489
Ġyears 2.1069198
, 0.94465154
Ġit 5.433504
Ġhad 1.771782
Ġgrown 2.5749726
Ġsmaller 4.3825345
Ġand 0.88496286
Ġmore 2.5808816
Ġportable 7.380776
. 0.87020665
ĠMore 6.6691055
Ġavailable 8.958345
Ġtoo 6.6727705
, 1.2575718
Ġwhat 7.4998
Ġwith 0.59813225
Ġthe 0.92624885
Ġever 5.907446
Ġgrowing 2.5722098
Ġpopulation 4.023288
. 2.281113
bytes:Ġ\xe2\x80 2.7925937
bytes:\x9c 0.008269456
Don 4.446318
bytes:\xe2\x80 0.0947137
bytes:\x99 0.0013492389
t 0.0009406594
Ġblink 1.7552102
, 1.1618978
Ġplease 5.322236
. 0.6086593
bytes:\xe2\x80 0.46982867
bytes:\x9d 0.00019893186
ĠNo 7.0843678
Ġlonger 3.866077
Ġwas 3.1999776
Ġthe 1.4332179
Ġdevice 5.2753835
Ġa 1.9799566
Ġseries 8.235401
Ġof 0.018894155
Ġbalanced 10.456492
Ġstones 7.8747215
, 1.1965656
Ġan 5.226809
Ġobs 8.129373
idian 0.0079355985
Ġaltar 7.0704308
, 1.4433175
Ġbrass 11.128057
Ġmirrors 5.495128
, 0.92611104
Ġand 1.602017
Ġcrystals 5.1375237
Ġand 5.3623676
Ġsig 8.915341
ils 0.0048217988
. 0.776587
ĠNow 2.0044382
Ġit 0.577304
Ġwas 0.290034
Ġa 0.7560537
Ġmetallic 6.6463065
Ġb 6.991974
ongo 6.920954
- 3.8904953
d 2.8927076
rum 0.08509426
Ġlooking 9.833758
Ġthing 0.76192963
Ġwith 1.7523707
Ġa 0.6330015
Ġgun 6.907005
Ġgrip 4.8953214
. 2.055416
ĠLas 10.612973
ers 1.1354402
Ġfrom 5.003987
Ġone 4.5226088
Ġend 0.6790295
, 3.354266
Ġresults 13.3214445
Ġon 4.677515
Ġthe 0.03693623
Ġother 0.013860866
. 0.28851667
ĠNo 4.841058
Ġneed 3.2568972
Ġfor 1.4865499
Ġheavy 7.549549
Ġto 8.686047
mes 1.146829
Ġto 3.2401116
Ġinterpret 5.679877
Ġresults 5.3571563
. 1.0121024
ĠPoint 8.587291
Ġand 2.3743255
Ġclick 1.8536501
Ġand 3.591385
Ġz 6.7092285
ap 0.90461755
Ġand 3.0922105
Ġhere 7.604082
bytes:\xe2\x80 2.1044803
bytes:\x99 0.00758115
s 0.0056791743
Ġyour 2.4409676
Ġcareer 10.905708
, 2.2809296
Ġkid 4.614707
! 2.9657757
bytes:Ġ\xe2\x80 2.4711485
bytes:\x9c 0.007697668
Okay 5.130282
, 0.38985252
Ġlets 7.6949267
Ġtry 3.105814
Ġagain 2.8954804
. 0.32825318
ĠDon 6.10549
bytes:\xe2\x80 0.0075585083
bytes:\x99 0.00010665305
t 0.0008319608
. 5.602451
ĠBlink 1.3922575
. 0.09177074
bytes:\xe2\x80 0.11192276
bytes:\x9d 0.00093863
ĠThings 8.058552
Ġhad 2.1648545
Ġchanged 1.3125508
Ġa 2.8575697
Ġgreat 2.6253397
Ġdeal 0.003133097
, 1.7664967
Ġbut 2.0466707
Ġthe 1.3979905
Ġsame 3.8878121
Ġcrystals 10.997489
Ġand 1.5343946
Ġsig 0.14014201
ils 0.0009149469
Ġwere 1.9595689
Ġat 6.287936
Ġplay 3.7663803
Ġwithin 5.581024
Ġthe 0.55069697
ĠDetect 7.7439456
ors 0.40622646
Ġcore 4.310591
. 0.58914626
ĠRef 8.911382
ined 3.8559608
Ġmagic 5.977039
. 2.6533303
ĠTechn 6.9479556
om 3.7186036
ancy 0.42451116
! 6.569496
bytes:Ġ\xe2\x80 2.3315856
bytes:\x9c 0.0030204554
You 3.0138075
Ġblinked 7.337431
. 1.1347549
bytes:\xe2\x80 0.3028235
bytes:\x9d 0.0005600938
bytes:Ġ\xe2\x80 1.454391
bytes:\x9c 0.0019403605
D 5.786167
int 8.568999
! 3.9167407
bytes:\xe2\x80 0.28496915
bytes:\x9d 0.00053337787
bytes:Ġ\xe2\x80 1.1158367
bytes:\x9c 0.0018527535
Look 5.536911
, 1.7552444
Ġyou 2.6123173
Ġdid 4.445478
. 3.4298987
ĠI 3.1948464
Ġneed 5.493364
Ġa 2.382763
Ġclear 4.3240376
Ġscan 4.9896646
Ġof 1.1686902
Ġyour 1.6491731
Ġeyes 3.9406667
Ġor 5.919541
Ġthe 3.2820814
Ġdetector 3.3076067
Ġwon 2.7484508
bytes:\xe2\x80 0.003378395
bytes:\x99 9.3535404e-05
t 0.00037875108
— 9.099108
bytes:\xe2\x80 0.09367978
bytes:\x9d 0.1264951
bytes:Ġ\xe2\x80 0.33507526
bytes:\x9c 0.0006162157
G 5.765612
uh 5.3711715
! 0.9144203
ĠJust 5.728448
Ġscan 5.054391
Ġme 1.4696952
, 1.6738913
Ġj 8.185131
eez 1.2675767
. 1.1245795
bytes:\xe2\x80 0.39803278
bytes:\x9d 0.00089997076
bytes:Ġ\xe2\x80 0.91005945
bytes:\x9c 0.0013338423
Look 4.014868
! 3.008802
ĠI 2.6718628
bytes:\xe2\x80 0.9693147
bytes:\x99 0.000601784
m 0.22819169
... 7.5357704
t 5.9986777
rying 0.49166033
Ġto 0.51778376
. 5.244679
bytes:\xe2\x80 0.4187242
bytes:\x9d 0.00029939285
ĠThe 2.2771552
ĠAss 10.082638
essor 2.7532203
Ġwas 2.6349406
Ġtapping 6.6557193
Ġhis 2.2576473
Ġfingers 2.1032891
Ġon 0.7967486
Ġthe 0.30459833
ĠDet 8.02543
ector 0.0031620984
. 1.7285429
ĠNot 5.3739886
Ġa 2.1212993
Ġnervous 7.801262
Ġhabit 2.710342
, 0.6246909
Ġmore 2.6190386
Ġa 1.4173609
Ġrage 8.991598
Ġrelease 8.4198065
. 0.32352573
ĠIt 3.6063843
Ġhad 2.2776873
Ġbeen 1.0005343
Ġa 1.0592906
Ġlong 0.8487668
Ġday 2.3413265
. 1.19895
ĠHe 2.3550427
Ġtook 5.6083574
Ġa 0.41133225
Ġdeep 0.6356223
Ġbreath 0.10741775
Ġand 1.0176195
Ġlifted 5.4749985
Ġthe 0.7803531
Ġdevice 2.3554692
. 1.4825419
ĠOn 6.5913725
Ġthe 0.59069
Ġend 5.5236883
Ġclosest 6.46671
Ġto 0.020277467
Ġhim 0.72035486
Ġhe 2.5199738
Ġcould 2.9671404
Ġsee 0.77840805
Ġa 1.7331957
Ġpair 5.4513144
Ġof 0.001989987
Ġdigitally 12.397344
Ġmagn 6.2052402
ified 0.03214972
Ġpe 7.7873106
ep 0.298289
ers 1.0003111
. 0.6542022
bytes:Ġ\xe2\x80 1.3568945
bytes:\x9c 0.0025864474
Now 4.6761017
. 3.0844464
ĠI 3.417903
bytes:\xe2\x80 1.1883138
bytes:\x99 0.0022344068
m 0.29461318
Ġgoing 2.0985441
Ġto 0.101224475
Ġpull 5.492384
Ġthe 1.3520544
Ġtrigger 1.5628799
Ġon 2.930042
Ġthree 7.6324854
. 2.3295643
ĠKeep 6.7092967
Ġyour 1.1805868
Ġeyes 0.3413048
Ġclosed 1.560901
Ġand 1.8055187
Ġopen 3.8704355
Ġthem 5.177848
Ġwhen 2.7971466
ĠI 0.8842585
Ġsay 1.5584816
Ġtwo 6.8378887
. 0.40937778
ĠOkay 4.526708
. 1.6194478
bytes:\xe2\x80 0.94061047
bytes:\x9d 0.0003413083
bytes:Ġ\xe2\x80 1.294827
bytes:\x9c 0.0011389306
J 5.116915
eez 0.10612813
, 0.9418843
Ġman 4.325863
, 1.0744509
ĠI 1.6183916
bytes:\xe2\x80 1.0027739
bytes:\x99 0.0006168108
m 0.13992321
Ġnot 1.6280165
Ġstupid 4.8172283
. 0.47975785
bytes:\xe2\x80 0.34873697
bytes:\x9d 0.00018390873
bytes:Ġ\xe2\x80 0.565834
bytes:\x9c 0.0008180031
Sure 5.903063
Ġyou 0.36215645
bytes:\xe2\x80 2.9598029
bytes:\x99 0.0004287793
re 0.014502484
Ġnot 0.089735076
. 0.39194766
ĠNow 3.8098323
... 4.330277
One 7.513314
. 0.80945015
bytes:\xe2\x80 1.2747413
bytes:\x9d 0.00053683587
ĠThe 1.287306
Ġkid 8.649782
Ġwas 2.3697145
Ġa 3.1590188
Ġport 10.3000965
ly 1.392311
Ġteen 5.9819117
Ġcoated 11.859827
Ġin 0.3418723
Ġa 1.4903065
Ġgre 5.500372
asy 0.15375371
Ġfilm 4.951874
Ġof 0.33920997
Ġpoor 10.487875
Ġhygiene 0.72935414
, 1.9170505
Ġwho 3.7614465
Ġcalled 8.062771
Ġa 5.009642
Ġlocal 8.637643
Ġorphan 8.246518
age 0.023435205
Ġhome 3.9288929
. 0.7287137
ĠHe 1.4942183
Ġwas 1.2550513
Ġlikely 8.623912
Ġabout 4.631405
Ġto 1.5212257
Ġbe 1.6475099
Ġsent 2.7094936
Ġout 3.7419612
Ġinto 2.1235754
Ġthe 0.16451368
Ġworld 1.0810882
Ġwith 2.4785643
Ġa 1.2991545
Ġcareer 8.90371
. 4.3965487
bytes:Ġ\xe2\x80 1.6321756
bytes:\x9c 0.0031960006
Two 1.0782216
. 0.20013176
bytes:\xe2\x80 0.14431016
bytes:\x9d 0.00016411634
ĠThe 1.3423547
Ġworld 7.084798
Ġis 5.0269275
Ġfilled 5.028188
Ġwith 0.033274584
Ġopportunities 6.4568105
, 1.3471088
Ġand 2.7258844
Ġas 5.038257
Ġa 1.7624348
Ġbusy 9.137687
ĠAss 9.651389
essor 0.0029786073
, 1.3884536
Ġthe 2.9311252
Ġtechnician 10.920847
Ġhad 1.7271701
Ġhad 4.031773
Ġa 1.7415998
Ġhand 5.370779
Ġin 0.1429071
Ġseveral 3.3129241
Ġbig 5.3622546
Ġsuccess 7.027042
Ġstories 0.15030757
. 0.33093703
ĠSome 4.6490855
Ġwere 2.521568
Ġeven 4.563695
Ġorphans 8.523066
Ġas 4.988338
Ġwell 1.3512961
! 3.9402604
ĠHe 2.5790343
Ġdid 4.871258
Ġnot 0.8483759
Ġhave 2.607824
Ġhigh 6.5787716
Ġhopes 0.7317423
Ġfor 0.5701447
Ġthis 1.0762357
Ġkid 1.5233878
... 5.124314
especially 5.6549616
Ġas 3.3762326
Ġhe 0.67054516
Ġhad 1.7740061
Ġignored 8.164575
Ġthe 1.2244357
Ġplan 8.702473
Ġand 3.061887
Ġstared 7.2971573
Ġinto 3.0997126
Ġthe 0.49407595
Ġdetector 3.5396047
, 2.5687988
Ġblinking 5.352753
Ġat 2.9636214
Ġrandom 3.5650587
Ġintervals 2.9083266
. 0.39786813
bytes:Ġ\xe2\x80 1.0861382
bytes:\x9c 0.0019867616
Three 0.4675574
! 2.3527634
bytes:\xe2\x80 0.0843349
bytes:\x9d 0.00087837427
ĠA 3.74391
Ġflash 4.631076
! 4.992753
ĠA 1.6604049
Ġbe 5.6292567
ep 1.0585613
... 6.5358605
and 3.0745025
Ġping 11.340104
! 0.23685907
ĠHe 3.0756528
Ġhad 2.141238
Ġdone 3.998133
Ġit 0.30304962
. 1.7178322
bytes:Ġ\xe2\x80 2.34331
bytes:\x9c 0.0027478724
Ok 7.082286
ie 4.568426
Ġdo 0.99043435
kie 0.038599156
, 1.0230336
bytes:\xe2\x80 1.776647
bytes:\x9d 0.00033856556
ĠSaid 7.5384264
Ġthe 0.33424285
ĠAss 2.3075757
essor 0.0016924902
. 1.4231038
bytes:Ġ\xe2\x80 0.43417624
bytes:\x9c 0.0019879565
It 4.029614
bytes:\xe2\x80 0.5144797
bytes:\x99 0.0015791744
s 0.025709955
Ġprocessing 10.255476
Ġnow 2.8740354
, 2.0031152
Ġjust 4.610008
Ġneeds 6.3584113
Ġto 1.114207
Ġload 5.372931
. 2.0662374
bytes:\xe2\x80 0.28388825
bytes:\x9d 0.00032836714
bytes:Ġ\xe2\x80 0.91071045
bytes:\x9c 0.00066589756
So 4.80079
Ġwhat 2.8531926
Ġam 4.0724487
ĠI 0.013021755
? 3.840223
ĠA 1.8987447
Ġsamurai 11.294389
? 1.126269
ĠA 1.630331
Ġchef 7.472912
? 0.057568494
bytes:\xe2\x80 1.4931395
bytes:\x9d 0.0014144769
bytes:Ġ\xe2\x80 0.63885593
bytes:\x9c 0.0012394234
Its 8.126026
Ġloading 8.266873
. 1.1645447
bytes:\xe2\x80 0.513519
bytes:\x9d 0.00014492373
ĠHe 2.8684013
bytes:\xe2\x80 5.113734
bytes:\x99 0.0001687683
s 1.8358274
Ġbe 7.5803056
Ġsomething 11.802256
Ġhe 5.2901244
Ġcould 5.1712637
Ġhandle 5.445346
. 0.55440545
ĠSomething 5.160522
Ġsociety 12.386533
Ġneeds 3.2095602
Ġhim 4.3924274
Ġto 1.5268408
Ġbe 2.1756625
. 0.34019455
bytes:Ġ\xe2\x80 1.6049176
bytes:\x9c 0.009361939
You 3.533087
bytes:\xe2\x80 0.9400156
bytes:\x99 0.0008021343
ll 2.5590189
Ġbe 1.2262304
Ġwhatever 7.4444437
Ġthe 2.9668307
Ġf 6.3280087
ates 3.5296645
Ġdecide 2.6651676
Ġthat 4.7639947
Ġyou 0.13026847
... 6.9810166
would 5.5083632
Ġbe 0.37454396
... 3.1696606
best 7.3770247
... 3.0996459
at 2.6807473
? 3.730886
ĠWhat 5.691599
! 7.266218
bytes:\xe2\x80 0.3560614
bytes:\x9d 0.00068945857
bytes:Ġ\xe2\x80 0.7110218
bytes:\x9c 0.0022256256
J 4.9651847
eez 0.11174145
, 0.41707608
Ġstress 11.585382
Ġout 5.581812
Ġmuch 8.876471
? 0.27020854
bytes:\xe2\x80 0.35295072
bytes:\x9d 0.00071033416
bytes:Ġ\xe2\x80 0.6775245
bytes:\x9c 0.0016760695
No 2.126309
. 1.8996055
ĠNo 3.6730943
Ġthat 5.967391
Ġcan 5.8695126
bytes:\xe2\x80 0.29179597
bytes:\x99 0.0011867904
t 0.0006274279
... 4.607869
is 5.945827
Ġthat 2.8072813
Ġeven 3.170309
Ġan 3.762381
Ġoption 1.0899606
? 0.57992005
bytes:\xe2\x80 0.4060773
bytes:\x9d 0.0010316446
bytes:Ġ\xe2\x80 0.40603846
bytes:\x9c 0.001095013
Wh 6.2895126
azz 6.7420735
it 2.659365
Ġsay 7.937902
? 1.1085014
bytes:\xe2\x80 0.29340613
bytes:\x9d 0.00086125237
bytes:Ġ\xe2\x80 0.39766085
bytes:\x9c 0.0011042005
I 2.074543
. 5.977274
ĠI 2.6354504
Ġhave 4.272792
Ġto 2.3395908
Ġget 2.9831705
Ġsomeone 6.7395387
, 3.7040863
Ġone 5.6298146
Ġmoment 6.0171323
, 1.559734
Ġwait 8.493955
Ġhere 3.8139315
, 1.5149046
Ġjust 5.566763
... 2.261277
don 5.0721955
bytes:\xe2\x80 0.034349527
bytes:\x99 0.00027494476
t 0.0028387252
Ġgo 4.385719
Ġanywhere 1.1685927
. 0.6738241
ĠHalf 10.346887
Ġan 1.2961274
Ġhour 0.007639347
Ġlater 2.6156812
Ġand 3.5367131
Ġan 7.628664
ĠAssistant 6.8772006
Ġfound 8.432679
Ġthe 3.3226519
ĠAss 9.022872
essor 0.005967068
Ġin 2.642183
Ġthe 0.9016551
Ġarchives 8.615942
, 1.824914
Ġfl 7.838346
icking 3.4112628
Ġthrough 0.12476149
Ġbooks 4.0389786
Ġand 1.7140052
Ġun 8.276506
rolling 4.1844935
Ġscrolls 2.6279724
. 0.736192
bytes:Ġ\xe2\x80 2.6223114
bytes:\x9c 0.060202748
Um 6.2649665
. 2.0044785
ĠYour 6.3290687
Ġthree 8.7525625
Ġo 7.063016
bytes:\xe2\x80 0.14529446
bytes:\x99 0.0055746366
clock 0.047218103
Ġis 2.4657984
Ġstill 4.1732106
Ġwaiting 5.425044
. 0.75886524
ĠWhat 4.778035
bytes:\xe2\x80 1.9079576
bytes:\x99 2.9399247e-05
s 0.07839671
Ġgoing 3.536527
Ġon 0.13106821
? 0.4478504
bytes:\xe2\x80 0.13126339
bytes:\x9d 0.0010388028
bytes:Ġ\xe2\x80 0.34701598
bytes:\x9c 0.0022066883
Look 5.5397243
. 1.9061334
bytes:\xe2\x80 1.1495689
bytes:\x9d 0.0013233961
ĠThe 0.85289854
ĠAss 1.6581513
essor 0.00189372
Ġtapped 3.956857
Ġthe 0.7622987
Ġdisplay 6.235979
Ġof 2.8491056
Ġthe 0.37676388
ĠDet 1.1111735
ector 0.0011926383
, 2.0532343
Ġthe 2.888046
Ġdevice 5.3071475
Ġwas 2.4089403
Ġcurrently 5.563083
Ġa 4.0742655
Ġpaper 6.9188004
Ġweight 4.081334
, 1.385293
Ġbut 1.685645
Ġthe 1.9583654
Ġlast 6.0899653
Ġresults 6.218529
Ġwere 1.3872283
Ġstill 2.613296
Ġon 3.3786056
Ġthe 0.8706596
Ġscreen 0.39000085
. 0.22726351
bytes:Ġ\xe2\x80 0.5316139
bytes:\x9c 0.0014422939
See 5.566388
Ġthat 2.5563178
? 0.8115837
bytes:\xe2\x80 1.250834
bytes:\x9d 0.0018683388
ĠThe 1.993585
ĠAssistant 5.706401
Ġpicked 5.703094
Ġit 2.84601
Ġup 0.024487143
. 1.6888367
ĠT 7.7492666
apped 1.8416848
Ġthrough 6.1253405
Ġthe 0.8501327
Ġscan 5.4953933
Ġresults 2.38127
Ġand 2.0963106
Ġshrugged 6.880629
. 0.2669092
bytes:Ġ\xe2\x80 0.16462322
bytes:\x9c 0.0014280274
Yeah 3.610474
. 0.95819753
ĠAnd 5.9271107
? 3.0909076
bytes:\xe2\x80 0.13742293
bytes:\x9d 0.0011952628
bytes:Ġ\xe2\x80 0.2539549
bytes:\x9c 0.00051983976
Did 7.0635395
Ġyou 0.8232904
Ġ* 10.148817
read 5.7763386
* 0.070506185
Ġit 2.2927392
!? 6.2632465
bytes:\xe2\x80 0.14333962
bytes:\x9d 0.001422417
bytes:Ġ\xe2\x80 0.3883473
bytes:\x9c 0.0013212465
Yeah 2.916992
— 8.639081
bytes:\xe2\x80 0.9023833
bytes:\x9d 0.04396056
bytes:Ġ\xe2\x80 0.35786116
bytes:\x9c 0.00085659855
Did 3.659836
Ġyou 0.32591224
Ġmeet 8.546723
Ġthat 3.1301928
Ġkid 4.19294
? 0.88967514
ĠNo 6.9764457
Ġway 3.196146
! 1.0962335
ĠNo 4.0459747
Ġway 0.56543756
! 0.5509507
ĠSomething 8.752386
Ġhas 4.424664
Ġgone 2.6201766
Ġ* 4.529356
wrong 0.3195624
*. 1.9306372
bytes:\xe2\x80 0.45400685
bytes:\x9d 0.0008420438
bytes:Ġ\xe2\x80 0.45568654
bytes:\x9c 0.001322202
That 4.2719836
bytes:\xe2\x80 0.60361487
bytes:\x99 0.0037721829
s 0.008793839
Ġa 2.6933327
Ġbit 3.3440163
Ġharsh 2.2857199
, 0.85616237
Ġboss 5.7275357
. 0.316891
bytes:\xe2\x80 0.44216457
bytes:\x9d 0.0004636042
bytes:Ġ\xe2\x80 0.44199523
bytes:\x9c 0.001182911
What 3.2404506
!? 2.7054837
ĠWhat 3.1965942
Ġis 2.8464692
Ġwrong 2.8339431
Ġwith 0.8235901
Ġyou 0.5582416
. 5.2648406
bytes:\xe2\x80 0.6484562
bytes:\x9d 0.0009688799
bytes:Ġ\xe2\x80 0.51028204
bytes:\x9c 0.0014622909
I 1.584132
Ġreckon 10.819865
Ġhe 2.6741595
Ġcould 4.75402
Ġdo 3.136783
Ġit 2.6833482
, 1.7351037
Ġwith 4.4503155
Ġsome 3.1849754
Ġpractice 1.422199
. 0.4119221
bytes:\xe2\x80 0.626912
bytes:\x9d 0.00089054485
bytes:Ġ\xe2\x80 0.32269293
bytes:\x9c 0.0012034994
Pract 3.6423504
— 13.6571245
wh 7.4565206
a 1.9195994
- 2.7233632
what 1.4722286
!? 2.0884066
ĠAre 5.0676785
Ġyou 0.027261782
Ġ* 6.149233
ins 6.0692406
ane 0.15944222
*. 5.71171
ĠI 3.6756444
Ġmean 2.0313494
Ġhow 5.2981462
Ġdo 2.4800828
Ġyou 0.063642316
Ġpractice 5.9806533
Ġ* 5.1257744
that 2.0418313
* 0.079600096
? 0.82225317
ĠHow 4.6590137
? 2.5800452
bytes:\xe2\x80 0.34868646
bytes:\x9d 0.0030263735
bytes:Ġ\xe2\x80 0.225189
bytes:\x9c 0.0010407129
You 2.9802556
... 6.758617
take 5.233911
Ġlessons 5.136218
? 2.7854116
ĠOh 5.4005547
! 3.2187293
ĠOh 3.5573654
, 1.5290731
Ġyou 2.592753
Ġbig 8.735809
Ġidiot 3.1334279
— 4.3013105
um 8.491027
... 1.5987751
s 6.3833547
ir 2.0958552
. 1.3276544
ĠSorry 4.3554626
. 1.0292839
ĠYou 3.6648903
Ġthought 7.461922
Ġit 3.2195451
Ġsaid 6.6513677
ĠGOD 12.442413
. 2.1624312
bytes:\xe2\x80 0.46084097
bytes:\x9d 0.002391412
bytes:Ġ\xe2\x80 0.33973014
bytes:\x9c 0.0011771815
Yeah 4.4284663
Ġit 5.8861833
— 6.9150195
bytes:\xe2\x80 1.222865
bytes:\x9d 0.044297885
bytes:Ġ\xe2\x80 0.18527745
bytes:\x9c 0.0005356419
Was 5.795908
Ġzoom 12.759914
ed 0.14847207
Ġin 0.6679593
. 2.4732194
ĠYou 3.4743347
Ġmust 4.462267
Ġhave 0.7559196
Ġtapped 7.38483
Ġthe 1.939143
Ġincrease 12.067804
Ġtext 9.29699
Ġsize 7.65315
Ġbutton 3.7512176
Ġsomehow 7.790166
. 0.3543083
bytes:\xe2\x80 0.5371787
bytes:\x9d 0.002386333
bytes:Ġ\xe2\x80 0.2021785
bytes:\x9c 0.00070305873
... 4.7887654
maybe 7.0471005
. 0.9136134
ĠBut 3.3671734
, 3.6759012
Ġthen 5.282249
... 2.9607947
what 3.1894312
Ġis 3.06409
Ġhe 3.6002963
? 1.2425445
bytes:\xe2\x80 0.46900597
bytes:\x9d 0.000597132
ĠThe 2.0804071
ĠAssistant 1.3401425
Ġhanded 5.7548347
Ġthe 0.540096
Ġnow 7.528848
Ġre 6.1899266
- 0.42759797
cal 4.2396207
ibr 0.03384659
ated 0.0069959345
ĠDet 0.3625711
ector 0.00045716506
Ġto 0.9734208
Ġthe 0.14821647
ĠAss 0.6114908
essor 0.0017550642
. 0.3713409
ĠHe 2.524394
Ġread 4.55942
Ġthe 1.0143824
Ġresult 3.4211423
Ġand 1.3784051
Ġfrowned 2.9041836
. 0.21339504
bytes:Ġ\xe2\x80 0.32994938
bytes:\x9c 0.0005451852
G 4.762031
og 7.54722
od 4.219102
ancer 9.531996
? 1.4330783
bytes:\xe2\x80 0.46388415
bytes:\x9d 0.0010296162
bytes:Ġ\xe2\x80 0.2890649
bytes:\x9c 0.0006462159
Hy 10.469392
ep 7.6259484
. 1.4159973
bytes:\xe2\x80 0.6389913
bytes:\x9d 0.00088374334
bytes:Ġ\xe2\x80 0.6273132
bytes:\x9c 0.0004606249
As 7.5218706
Ġin 1.486575
... 2.532816
with 6.7084637
Ġthe 2.2315478
... 4.695162
bytes:\xe2\x80 2.2146127
bytes:\x9d 0.0018855977
bytes:Ġ\xe2\x80 0.2410179
bytes:\x9c 0.00038185148
Uh 4.8550444
- 2.1903427
h 0.5181735
uh 0.02847916
. 0.2784336
bytes:\xe2\x80 0.6255822
bytes:\x9d 0.0010266341
ĠThe 1.1709263
ĠAss 0.7258464
essor 0.0011792108
Ġsighed 3.9907563
Ġand 1.6991535
Ġrubbed 3.4351373
Ġhis 0.41658443
Ġeyes 1.6648927
. 0.23068625
bytes:Ġ\xe2\x80 0.30328256
bytes:\x9c 0.00067209924
I 1.9463259
bytes:\xe2\x80 1.4448916
bytes:\x99 0.000697928
m 0.46974173
Ġgoing 2.3497841
Ġto 0.33956817
Ġgo 2.2910206
Ġtell 5.3982306
Ġhim 2.9281428
Ġand 5.177356
Ġthen 3.0470521
... 2.3001401
I 2.5466828
bytes:\xe2\x80 0.28977886
bytes:\x99 0.0010900006
m 0.6889188
Ġon 4.9838123
Ġbreak 6.9194727
Ġfor 2.1387465
Ġan 3.0575547
Ġhour 0.021482052
. 0.50410956
bytes:\xe2\x80 0.8597039
bytes:\x9d 0.00041327655
