bytes:\xe2\x80 5.431954
bytes:\x9c 0.14811431
Try 8.609953
Ġnot 2.403878
Ġto 0.12114175
Ġblink 6.932433
. 0.95506984
bytes:\xe2\x80 0.6938392
bytes:\x9d 0.0032758326
ĠThe 3.5724392
ĠDet 14.114125
ector 0.76455784
Ġhad 7.414881
Ġchanged 6.757868
Ġshape 5.2325687
Ġover 5.569448
Ġthe 0.25087583
Ġyears 0.97839886
, 0.76994866
Ġit 5.3312693
Ġhad 1.1688803
Ġgrown 2.5776458
Ġsmaller 4.038087
Ġand 0.8860773
Ġmore 1.536649
Ġportable 4.213528
. 1.2151655
ĠMore 5.3760524
Ġavailable 9.593325
Ġtoo 5.16441
, 1.09777
Ġwhat 6.468099
Ġwith 0.4226823
Ġthe 0.8233704
Ġever 5.764772
Ġgrowing 2.2711055
Ġpopulation 3.6481035
. 1.7087004
bytes:Ġ\xe2\x80 3.3186605
bytes:\x9c 0.0121036405
Don 4.257757
bytes:\xe2\x80 0.05782379
bytes:\x99 0.0004515604
t 0.00043820243
Ġblink 1.9567459
, 1.2467204
Ġplease 5.3020864
. 0.5636842
bytes:\xe2\x80 0.37431115
bytes:\x9d 0.0013058488
ĠNo 6.19095
Ġlonger 2.7501702
Ġwas 1.6624796
Ġthe 1.4889123
Ġdevice 3.4773612
Ġa 1.8248047
Ġseries 6.6381965
Ġof 0.0050590634
Ġbalanced 11.845814
Ġstones 5.9304185
, 1.1938058
Ġan 5.4232583
Ġobs 6.9063544
idian 0.0040476182
Ġaltar 4.879212
, 1.5712436
Ġbrass 8.2452965
Ġmirrors 5.0901237
, 0.99171025
Ġand 1.1599966
Ġcrystals 4.2717104
Ġand 4.718641
Ġsig 6.8933287
ils 0.004079458
. 1.2038574
ĠNow 1.5004545
Ġit 0.4611905
Ġwas 0.24895288
Ġa 0.5845911
Ġmetallic 6.085346
Ġb 7.82719
ongo 8.672891
- 2.246804
d 3.222759
rum 0.0012382295
Ġlooking 3.04307
Ġthing 1.1821442
Ġwith 1.577322
Ġa 0.8631572
Ġgun 8.245899
Ġgrip 4.2660527
. 1.6707553
ĠLas 10.537036
ers 0.06125706
Ġfrom 5.640332
Ġone 5.2285542
Ġend 0.70856017
, 1.8791382
Ġresults 9.724841
Ġon 2.0086184
Ġthe 0.14629935
Ġother 0.12833226
. 0.1742502
ĠNo 4.062523
Ġneed 3.234663
Ġfor 0.57822734
Ġheavy 7.7128663
Ġto 5.7299385
mes 0.042453684
Ġto 3.4239857
Ġinterpret 3.54254
Ġresults 2.4258745
. 1.3041904
ĠPoint 7.75124
Ġand 0.64833766
Ġclick 2.06589
Ġand 3.0516021
Ġz 6.900657
ap 0.17413348
Ġand 2.4258587
Ġhere 7.280687
bytes:\xe2\x80 1.2358387
bytes:\x99 0.0017428225
s 0.006117405
Ġyour 0.6865569
Ġcareer 10.510568
, 1.7465706
Ġkid 4.9532127
! 3.1255512
bytes:Ġ\xe2\x80 1.9382074
bytes:\x9c 0.0035377946
Okay 4.5274835
, 0.40001622
Ġlets 8.911823
Ġtry 2.2499423
Ġagain 1.5660172
. 0.19979435
ĠDon 2.4847057
bytes:\xe2\x80 0.003591033
bytes:\x99 8.8410365e-05
t 0.00015923065
. 4.362796
ĠBlink 0.15656066
. 0.064809166
bytes:\xe2\x80 0.10970361
bytes:\x9d 0.0018592029
ĠThings 8.830648
Ġhad 1.3688221
Ġchanged 0.5704689
Ġa 2.8042407
Ġgreat 2.875305
Ġdeal 0.0047307047
, 2.1237864
Ġbut 1.1406871
Ġthe 1.1643766
Ġsame 4.1410904
Ġcrystals 11.906304
Ġand 1.5932094
Ġsig 0.5928334
ils 0.0013310958
Ġwere 1.0439669
Ġat 4.9066854
Ġplay 2.2475786
Ġwithin 5.3199577
Ġthe 0.41978943
ĠDetect 7.7817483
ors 0.24689066
Ġcore 3.7833102
. 0.3625248
ĠRef 8.144071
ined 1.9523911
Ġmagic 6.2420397
. 2.7556705
ĠTechn 7.469358
om 1.8171632
ancy 0.8118997
! 5.692979
bytes:Ġ\xe2\x80 1.471555
bytes:\x9c 0.0061986074
You 3.0974817
Ġblinked 4.0847063
. 0.90796053
bytes:\xe2\x80 0.704441
bytes:\x9d 0.0011861325
bytes:Ġ\xe2\x80 1.7022254
bytes:\x9c 0.0049500368
D 5.341609
int 10.189885
! 3.7944295
bytes:\xe2\x80 0.41439354
bytes:\x9d 0.002247728
bytes:Ġ\xe2\x80 0.48540133
bytes:\x9c 0.0029062722
Look 5.584892
, 0.5725025
Ġyou 2.0728035
Ġdid 4.3522577
. 0.6718475
ĠI 2.090868
Ġneed 4.3477683
Ġa 2.6091304
Ġclear 2.690547
Ġscan 2.8802502
Ġof 2.43695
Ġyour 0.38417017
Ġeyes 1.3410226
Ġor 3.5762503
Ġthe 2.0881336
Ġdetector 4.7058506
Ġwon 1.0658704
bytes:\xe2\x80 0.005494743
bytes:\x99 0.0004169739
t 0.0006302908
— 5.746223
bytes:\xe2\x80 0.19647089
bytes:\x9d 0.5256921
bytes:Ġ\xe2\x80 0.10958263
bytes:\x9c 0.0013006572
G 5.4969444
uh 5.437275
! 0.9628927
ĠJust 6.083994
Ġscan 2.5439394
Ġme 0.8856675
, 2.5701618
Ġj 4.821274
eez 0.95328295
. 0.7368275
bytes:\xe2\x80 0.1880313
bytes:\x9d 0.0009969785
bytes:Ġ\xe2\x80 0.5763239
bytes:\x9c 0.0013854107
Look 3.9399533
! 4.2699404
ĠI 1.8092993
bytes:\xe2\x80 1.4000585
bytes:\x99 0.0008750327
m 0.42785284
... 8.660141
t 6.5099273
rying 0.101434104
Ġto 1.1470857
. 4.5090766
bytes:\xe2\x80 1.1750196
bytes:\x9d 0.0012372739
ĠThe 1.7262473
ĠAss 10.697809
essor 0.591844
Ġwas 2.343524
Ġtapping 6.5508885
Ġhis 2.511982
Ġfingers 1.8663268
Ġon 0.70216155
Ġthe 0.1814612
ĠDet 4.4015512
ector 0.0035502936
. 1.6772125
ĠNot 4.5126257
Ġa 1.9891479
Ġnervous 4.7304716
Ġhabit 1.7514113
, 0.5104759
Ġmore 3.0384073
Ġa 1.7133096
Ġrage 8.72082
Ġrelease 5.948109
. 0.47203848
ĠIt 3.605003
Ġhad 2.1429055
Ġbeen 0.31403077
Ġa 0.5523321
Ġlong 0.69089234
Ġday 0.38934043
. 0.88042575
ĠHe 2.497818
Ġtook 5.1284285
Ġa 0.21673746
Ġdeep 0.44578004
Ġbreath 0.054475985
Ġand 1.008542
Ġlifted 6.676612
Ġthe 0.5857971
Ġdevice 1.8503287
. 2.457341
ĠOn 7.2511573
Ġthe 0.5922318
Ġend 3.703213
Ġclosest 5.5063443
Ġto 0.070233755
Ġhim 2.0605185
Ġhe 3.1488073
Ġcould 2.2123024
Ġsee 0.25614092
Ġa 1.4879376
Ġpair 5.142939
Ġof 0.0080583505
Ġdigitally 9.700456
Ġmagn 4.7804637
ified 0.0138977915
Ġpe 6.7749567
ep 0.05411414
ers 0.028832588
. 1.055269
bytes:Ġ\xe2\x80 2.3638196
bytes:\x9c 0.008908455
Now 3.8099332
. 2.2339542
ĠI 3.199873
bytes:\xe2\x80 1.252361
bytes:\x99 0.0034523795
m 0.15897408
Ġgoing 0.5212813
Ġto 0.014244652
Ġpull 6.2112584
Ġthe 0.8376409
Ġtrigger 0.3967372
Ġon 2.4795012
Ġthree 7.4067435
. 0.22936963
ĠKeep 6.371518
Ġyour 0.29538202
Ġeyes 0.11904128
Ġclosed 2.9692874
Ġand 2.3859515
Ġopen 3.4960873
Ġthem 0.6840368
Ġwhen 1.5012597
ĠI 0.24782601
Ġsay 0.4561615
Ġtwo 4.8431897
. 0.18718895
ĠOkay 2.2604928
. 3.2136796
bytes:\xe2\x80 1.4894799
bytes:\x9d 0.0017702302
bytes:Ġ\xe2\x80 0.78971875
bytes:\x9c 0.001777454
J 5.0914273
eez 0.18637942
, 1.0278357
Ġman 3.8124428
, 1.7790428
ĠI 1.6906117
bytes:\xe2\x80 1.2733194
bytes:\x99 0.002913148
m 0.28309724
Ġnot 1.4755396
Ġstupid 3.1984184
. 0.23648775
bytes:\xe2\x80 0.24657553
bytes:\x9d 0.0011352313
bytes:Ġ\xe2\x80 0.22552353
bytes:\x9c 0.0019520062
Sure 5.830338
Ġyou 1.362025
bytes:\xe2\x80 1.4299694
bytes:\x99 0.0005708301
re 0.0040647346
Ġnot 0.031374123
. 0.16652326
ĠNow 2.9059737
... 2.8293083
One 3.612039
. 0.7546617
bytes:\xe2\x80 0.9755098
bytes:\x9d 0.0020660786
ĠThe 1.3331728
Ġkid 7.3053575
Ġwas 3.0130157
Ġa 2.90705
Ġport 9.413616
ly 0.14106575
Ġteen 5.241885
Ġcoated 10.685165
Ġin 0.11855389
Ġa 1.825029
Ġgre 3.9105158
asy 0.010916375
Ġfilm 1.7483989
Ġof 0.62467855
Ġpoor 7.813442
Ġhygiene 0.56016034
, 2.7431283
Ġwho 5.7106476
Ġcalled 7.5824847
Ġa 5.2903323
Ġlocal 4.9643025
Ġorphan 6.5185122
age 0.016981717
Ġhome 0.44468442
. 0.15041265
ĠHe 1.2050855
Ġwas 1.3778554
Ġlikely 6.0904427
Ġabout 5.795925
Ġto 1.0455678
Ġbe 1.2110738
Ġsent 4.021438
Ġout 2.3630948
Ġinto 0.8895691
Ġthe 0.09926577
Ġworld 0.5928447
Ġwith 2.359501
Ġa 0.9246853
Ġcareer 4.8536024
. 2.4330945
bytes:Ġ\xe2\x80 2.2991824
bytes:\x9c 0.0038102937
Two 0.23003711
. 0.15359232
bytes:\xe2\x80 0.06276819
bytes:\x9d 0.0005845466
ĠThe 0.91837347
Ġworld 5.9170604
Ġis 3.746128
Ġfilled 4.807003
Ġwith 0.033767298
Ġopportunities 5.1722097
, 1.3080306
Ġand 2.1820989
Ġas 5.209336
Ġa 2.276775
Ġbusy 7.6772404
ĠAss 1.1509644
essor 0.006361214
, 0.79872274
Ġthe 1.6183134
Ġtechnician 9.640424
Ġhad 1.7335237
Ġhad 4.5501466
Ġa 2.1503527
Ġhand 3.8067439
Ġin 0.026335353
Ġseveral 5.972429
Ġbig 6.9379416
Ġsuccess 5.5103903
Ġstories 0.049854994
. 0.2611271
ĠSome 3.9751077
Ġwere 2.6545289
Ġeven 2.5729263
Ġorphans 6.8708143
Ġas 6.149976
Ġwell 0.4443364
! 2.033698
ĠHe 2.778305
Ġdid 4.9115148
Ġnot 1.9953848
Ġhave 2.664889
Ġhigh 4.4058175
Ġhopes 0.11249496
Ġfor 0.1108689
Ġthis 0.2994014
Ġkid 1.8139706
... 5.96573
especially 5.9045258
Ġas 3.384616
Ġhe 0.6575955
Ġhad 2.0040717
Ġignored 7.2057285
Ġthe 1.0173231
Ġplan 9.538331
Ġand 1.7571508
Ġstared 4.9076233
Ġinto 2.247521
Ġthe 0.15091117
Ġdetector 3.0272453
, 3.300031
Ġblinking 3.202636
Ġat 3.345328
Ġrandom 4.0527463
Ġintervals 1.4473326
. 0.2381962
bytes:Ġ\xe2\x80 0.57975775
bytes:\x9c 0.0023924885
Three 0.3633084
! 1.1249284
bytes:\xe2\x80 0.087444544
bytes:\x9d 0.0013085945
ĠA 3.7194612
Ġflash 2.626176
! 3.9217792
ĠA 1.2049749
Ġbe 5.5168815
ep 0.040177573
... 6.159328
and 1.2858915
Ġping 9.273822
! 0.5133176
ĠHe 4.5967264
Ġhad 2.3807142
Ġdone 2.8374586
Ġit 0.04300957
. 1.3155833
bytes:Ġ\xe2\x80 1.467341
bytes:\x9c 0.004353063
Ok 7.183689
ie 4.0108433
Ġdo 0.7227172
kie 0.23997703
, 1.1195979
bytes:\xe2\x80 2.601843
bytes:\x9d 0.0015737416
ĠSaid 5.1027107
Ġthe 0.06369656
ĠAss 0.40980658
essor 0.014894438
. 1.0146505
bytes:Ġ\xe2\x80 0.26551852
bytes:\x9c 0.0031940886
It 4.45674
bytes:\xe2\x80 0.6101335
bytes:\x99 2.7967804e-05
s 0.028439179
Ġprocessing 6.5844536
Ġnow 2.294725
, 2.0341697
Ġjust 2.9475408
Ġneeds 6.946897
Ġto 1.9765699
Ġload 4.0181475
. 1.0706664
bytes:\xe2\x80 0.6056275
bytes:\x9d 0.00064359145
bytes:Ġ\xe2\x80 0.92438674
bytes:\x9c 0.001389231
So 2.9020977
Ġwhat 1.9077097
Ġam 2.2644508
ĠI 0.005631878
? 1.074765
ĠA 3.0109785
Ġsamurai 9.668203
? 0.47668648
ĠA 1.7210628
Ġchef 5.118419
? 0.052622993
bytes:\xe2\x80 0.6854636
bytes:\x9d 0.0008660254
bytes:Ġ\xe2\x80 0.2519388
bytes:\x9c 0.0008863669
Its 8.62579
Ġloading 3.014166
. 1.0374901
bytes:\xe2\x80 0.47269377
bytes:\x9d 0.0005709483
ĠHe 3.3680704
bytes:\xe2\x80 5.0434
bytes:\x99 0.00021252633
s 2.3275337
Ġbe 4.0983067
Ġsomething 6.4896746
Ġhe 5.6360755
Ġcould 2.4444637
Ġhandle 2.8227355
. 0.58277
ĠSomething 2.2510707
Ġsociety 9.70473
Ġneeds 2.994166
Ġhim 6.915493
Ġto 0.13616319
Ġbe 0.10359214
. 0.26130188
bytes:Ġ\xe2\x80 1.8218511
bytes:\x9c 0.0032835472
You 3.7500823
bytes:\xe2\x80 0.86404824
bytes:\x99 0.0001831916
ll 1.3483444
Ġbe 0.9967983
Ġwhatever 5.077162
Ġthe 2.6237357
Ġf 5.9438977
ates 0.81847876
Ġdecide 1.9480716
Ġthat 7.2476006
Ġyou 0.06897809
... 4.453499
would 6.9799366
Ġbe 0.4997288
... 2.551066
best 4.2942567
... 1.5184523
at 1.3208932
? 4.232249
ĠWhat 5.343073
! 5.83975
bytes:\xe2\x80 0.5354035
bytes:\x9d 0.0034770828
bytes:Ġ\xe2\x80 0.8985012
bytes:\x9c 0.0018467216
J 4.1384516
eez 0.084142834
, 0.48183945
Ġstress 12.410356
Ġout 3.2925916
Ġmuch 0.82731223
? 0.30572134
bytes:\xe2\x80 0.42700762
bytes:\x9d 0.0005433961
bytes:Ġ\xe2\x80 0.47078627
bytes:\x9c 0.0011847002
No 2.14094
. 1.4534506
ĠNo 2.281208
Ġthat 6.772489
Ġcan 2.7941918
bytes:\xe2\x80 0.010018014
bytes:\x99 0.00022552288
t 0.0004835843
... 2.7717173
is 6.181279
Ġthat 0.8549331
Ġeven 2.902398
Ġan 4.8839803
Ġoption 0.09707005
? 0.36699212
bytes:\xe2\x80 0.32974264
bytes:\x9d 0.0010080743
bytes:Ġ\xe2\x80 0.25182688
bytes:\x9c 0.0010624916
Wh 5.6169786
azz 5.8521256
it 2.5738163
Ġsay 0.87374544
? 0.3353288
bytes:\xe2\x80 0.0872109
bytes:\x9d 0.001369832
bytes:Ġ\xe2\x80 0.35472116
bytes:\x9c 0.0010749033
I 2.0336254
. 4.2614074
ĠI 1.8116592
Ġhave 4.0606575
Ġto 1.0534284
Ġget 4.639675
Ġsomeone 4.9175024
, 4.4960933
Ġone 6.579776
Ġmoment 4.8123345
, 2.5950863
Ġwait 5.0894513
Ġhere 1.603373
, 2.6702375
Ġjust 3.5690956
... 1.7934078
don 4.125151
bytes:\xe2\x80 0.0051530018
bytes:\x99 0.00011928824
t 0.0012582828
Ġgo 1.956281
Ġanywhere 0.19147573
. 0.40121976
ĠHalf 12.968275
Ġan 2.4727187
Ġhour 0.06784112
Ġlater 6.400119
Ġand 2.6838217
Ġan 3.913456
ĠAssistant 8.694438
Ġfound 5.798444
Ġthe 0.472529
ĠAss 0.6829617
essor 0.05263907
Ġin 2.0782423
Ġthe 0.7223939
Ġarchives 7.149205
, 1.1582885
Ġfl 5.731236
icking 0.49467155
Ġthrough 0.1646916
Ġbooks 2.9732764
Ġand 1.5320963
Ġun 7.7767625
rolling 2.777672
Ġscrolls 0.40284678
. 0.5178682
bytes:Ġ\xe2\x80 0.42729276
bytes:\x9c 0.002987516
Um 3.9699862
. 1.343576
ĠYour 5.519276
Ġthree 6.539335
Ġo 1.3366122
bytes:\xe2\x80 0.12690888
bytes:\x99 0.00067687134
clock 0.19734512
Ġis 1.2135342
Ġstill 4.1409073
Ġwaiting 0.58495176
. 0.8771712
ĠWhat 4.80591
bytes:\xe2\x80 1.4560258
bytes:\x99 7.97072e-05
s 0.24104892
Ġgoing 1.3101196
Ġon 0.025233347
? 0.14037284
bytes:\xe2\x80 0.107561626
bytes:\x9d 0.001083796
bytes:Ġ\xe2\x80 0.1402559
bytes:\x9c 0.0010274677
Look 4.9968486
. 1.3529408
bytes:\xe2\x80 1.1941643
bytes:\x9d 0.00047219192
ĠThe 1.4796468
ĠAss 0.40886956
essor 0.04174615
Ġtapped 4.298312
Ġthe 0.93316346
Ġdisplay 5.417654
Ġof 1.8972541
Ġthe 0.25843832
ĠDet 0.14624229
ector 0.00039306178
, 1.7697667
Ġthe 3.0201952
Ġdevice 5.0398574
Ġwas 1.6169894
Ġcurrently 5.4359508
Ġa 3.7363415
Ġpaper 5.7997346
Ġweight 2.896154
, 1.7714738
Ġbut 2.8857617
Ġthe 1.4019845
Ġlast 5.335412
Ġresults 3.5868452
Ġwere 0.44816622
Ġstill 0.9244448
Ġon 1.5102929
Ġthe 1.0737549
Ġscreen 0.2729081
. 0.11945743
bytes:Ġ\xe2\x80 0.32348594
bytes:\x9c 0.0029837466
See 3.4881415
Ġthat 1.7793648
? 0.2874631
bytes:\xe2\x80 0.35611007
bytes:\x9d 0.00086685986
ĠThe 2.2596865
ĠAssistant 0.25823557
Ġpicked 5.9367986
Ġit 1.6934588
Ġup 0.0062913327
. 1.5537184
ĠT 6.393286
apped 0.5368374
Ġthrough 5.4324284
Ġthe 0.535447
Ġscan 6.735526
Ġresults 1.2852222
Ġand 2.5795965
Ġshrugged 4.168292
. 0.15512998
bytes:Ġ\xe2\x80 0.053668518
bytes:\x9c 0.0016115316
Yeah 2.3005946
. 1.1021329
ĠAnd 6.124818
? 0.2069775
bytes:\xe2\x80 0.17722571
bytes:\x9d 0.0009255631
bytes:Ġ\xe2\x80 0.094470374
bytes:\x9c 0.0011482401
Did 5.7726774
Ġyou 0.20643808
Ġ* 10.577541
read 1.0658568
* 0.01074652
Ġit 0.5570802
!? 4.5690436
bytes:\xe2\x80 0.15382114
bytes:\x9d 0.0013393334
bytes:Ġ\xe2\x80 0.23057418
bytes:\x9c 0.00094495463
Yeah 2.7069483
— 5.9208703
bytes:\xe2\x80 0.40485528
bytes:\x9d 0.16519287
bytes:Ġ\xe2\x80 0.106896386
bytes:\x9c 0.001990704
Did 3.089315
Ġyou 0.13124083
Ġmeet 10.216818
Ġthat 4.4283614
Ġkid 0.2636102
? 0.53163195
ĠNo 6.770512
Ġway 5.5331264
! 1.7060667
ĠNo 2.6536276
Ġway 0.768062
! 1.289436
ĠSomething 7.6420155
Ġhas 2.6693583
Ġgone 0.79378456
Ġ* 4.7533417
wrong 1.0597458
*. 0.7178153
bytes:\xe2\x80 0.87982136
bytes:\x9d 0.0015639514
bytes:Ġ\xe2\x80 0.209079
bytes:\x9c 0.0010592701
That 4.8426657
bytes:\xe2\x80 0.503864
bytes:\x99 6.885639e-05
s 0.0056469236
Ġa 2.3336716
Ġbit 2.2706661
Ġharsh 2.237978
, 1.1777693
Ġboss 6.4312196
. 0.24918655
bytes:\xe2\x80 0.69275725
bytes:\x9d 0.0004602654
bytes:Ġ\xe2\x80 0.15624793
bytes:\x9c 0.0010531257
What 3.6043425
!? 2.5566373
ĠWhat 2.978414
Ġis 2.7207956
Ġwrong 2.2300107
Ġwith 0.08889786
Ġyou 0.662464
. 4.17251
bytes:\xe2\x80 2.1049027
bytes:\x9d 0.0015670555
bytes:Ġ\xe2\x80 0.34355727
bytes:\x9c 0.00058394956
I 1.8372511
Ġreckon 8.705133
Ġhe 1.781019
Ġcould 3.2135422
Ġdo 2.6416044
Ġit 2.7139044
, 2.1666086
Ġwith 4.803988
Ġsome 2.0907607
Ġpractice 3.420674
. 0.28642523
bytes:\xe2\x80 0.35158437
bytes:\x9d 0.0002476394
bytes:Ġ\xe2\x80 0.12080095
bytes:\x9c 0.0005018289
Pract 2.59672
— 7.818248
wh 7.4706964
a 0.3285011
- 2.7320282
what 1.8237175
!? 1.5854584
ĠAre 3.4630516
Ġyou 0.029217066
Ġ* 3.8249059
ins 2.0785882
ane 0.0037511224
*. 2.0421321
ĠI 3.851844
Ġmean 2.3876534
Ġhow 5.1983676
Ġdo 3.0593042
Ġyou 0.10851238
Ġpractice 5.683039
Ġ* 4.535138
that 1.7054964
* 0.5717284
? 0.9999485
ĠHow 3.2891064
? 2.3541753
bytes:\xe2\x80 0.6883803
bytes:\x9d 0.0017883808
bytes:Ġ\xe2\x80 0.14543514
bytes:\x9c 0.0005080306
You 2.858374
... 3.5896058
take 5.7203827
Ġlessons 4.0176063
? 0.6917618
ĠOh 7.4608035
! 1.9038442
ĠOh 2.8213687
, 2.0312798
Ġyou 2.4414527
Ġbig 9.466442
Ġidiot 3.3216321
— 4.9290495
um 7.344931
... 2.1585512
s 4.4444733
ir 0.19291663
. 0.67095995
ĠSorry 4.281178
. 0.35967284
ĠYou 3.376998
Ġthought 6.7173066
Ġit 2.1447327
Ġsaid 1.8490481
ĠGOD 12.933645
. 1.8855191
bytes:\xe2\x80 0.63112366
bytes:\x9d 0.000424607
bytes:Ġ\xe2\x80 0.13141945
bytes:\x9c 0.0012537473
Yeah 3.3298588
Ġit 5.814476
— 3.3057592
bytes:\xe2\x80 2.0027792
bytes:\x9d 0.12854506
bytes:Ġ\xe2\x80 0.13343489
bytes:\x9c 0.0012917034
Was 7.3305187
Ġzoom 11.63168
ed 0.050381105
Ġin 0.1793532
. 1.1976366
ĠYou 2.6544814
Ġmust 4.522004
Ġhave 0.42423165
Ġtapped 6.3199806
Ġthe 0.81536615
Ġincrease 10.155884
Ġtext 3.625879
Ġsize 2.4882116
Ġbutton 0.73166305
Ġsomehow 7.203993
. 0.38180315
bytes:\xe2\x80 0.5166047
bytes:\x9d 0.0002145538
bytes:Ġ\xe2\x80 0.122950464
bytes:\x9c 0.005591241
... 3.129948
maybe 6.085753
. 0.6672561
ĠBut 3.4605122
, 2.90717
Ġthen 5.73377
... 1.8099604
what 1.876163
Ġis 1.9389855
Ġhe 1.5460329
? 0.59074336
bytes:\xe2\x80 0.37728953
bytes:\x9d 0.00044869748
ĠThe 2.410716
ĠAssistant 0.4710919
Ġhanded 4.040247
Ġthe 0.4937299
Ġnow 7.401136
Ġre 5.391331
- 0.18996829
cal 2.5584245
ibr 0.004493876
ated 0.048355773
ĠDet 0.18897861
ector 0.00031429582
Ġto 2.3122165
Ġthe 0.25675938
ĠAss 0.0797219
essor 0.018366328
. 0.51085055
ĠHe 1.9547149
Ġread 2.9889843
Ġthe 0.60550255
Ġresult 2.9978075
Ġand 1.8876585
Ġfrowned 4.370473
. 0.19755688
bytes:Ġ\xe2\x80 0.21624026
bytes:\x9c 0.0017872469
G 5.0513334
og 6.586954
od 4.6793313
ancer 5.6860814
? 1.1456875
bytes:\xe2\x80 0.35049638
bytes:\x9d 0.0042098155
bytes:Ġ\xe2\x80 0.46768183
bytes:\x9c 0.0004662296
Hy 11.18991
ep 4.76303
. 0.5242152
bytes:\xe2\x80 0.25755334
bytes:\x9d 0.0009117236
bytes:Ġ\xe2\x80 0.6315514
bytes:\x9c 0.0009240134
As 6.2489834
Ġin 0.14822318
... 1.2209653
with 7.061533
Ġthe 1.6626316
... 2.31856
bytes:\xe2\x80 2.114317
bytes:\x9d 0.024154183
bytes:Ġ\xe2\x80 0.112711504
bytes:\x9c 0.0007222635
Uh 4.184805
- 1.1022412
h 0.04958061
uh 0.01717313
. 0.09153112
bytes:\xe2\x80 0.20768556
bytes:\x9d 0.00096368726
ĠThe 2.5198486
ĠAss 0.715738
essor 0.075387746
Ġsighed 2.74225
Ġand 1.3683971
Ġrubbed 2.3527813
Ġhis 0.12185942
Ġeyes 1.5976367
. 0.19708326
bytes:Ġ\xe2\x80 0.4075808
bytes:\x9c 0.0007587686
I 2.3975677
bytes:\xe2\x80 1.3304375
bytes:\x99 8.948419e-05
m 0.6632593
Ġgoing 1.0872668
Ġto 0.17194326
Ġgo 2.311989
Ġtell 2.954836
Ġhim 0.52471733
Ġand 4.1155324
Ġthen 1.1474228
... 2.128277
I 1.5233108
bytes:\xe2\x80 0.8280103
bytes:\x99 9.866513e-05
m 0.27293527
Ġon 5.994265
Ġbreak 2.481767
Ġfor 2.3750012
Ġan 2.6651053
Ġhour 0.027819574
. 0.21560095
bytes:\xe2\x80 0.6593408
bytes:\x9d 0.00066255784
