Part 8.202698
Ġ2 3.7453768
: 1.1087246
Ġ* 8.955874
He 7.8474073
Ġwas 3.8522253
Ġrunning 5.6358266
Ġlate 4.046427
*. 5.908804
ĠHe 4.5521994
Ġwas 1.3081617
Ġnever 5.7920976
Ġlate 0.62176263
, 2.4486663
Ġhe 1.5955247
Ġcould 4.4271607
Ġopen 8.545368
Ġ* 10.17456
port 9.446843
als 2.2056086
*, 2.7780895
Ġbut 2.387384
Ġhere 7.5217385
Ġhe 1.0730269
Ġwas 0.4485156
, 1.2883503
Ġlate 2.3489854
Ġto 3.255682
Ġhis 2.5219307
Ġgreat 8.89862
Ġshowdown 10.800921
Ġwith 0.39575592
Ġthe 1.2446826
ĠRed 5.666611
ĠMistress 11.626424
, 1.9063909
Ġwho 2.794502
Ġwas 1.424598
Ġholding 5.132002
Ġa 1.5989299
ĠNews 11.655857
boy 4.048126
Ġhostage 6.3098183
Ġfor 4.0368476
Ġsome 2.866031
Ġreason 1.3049269
. 0.45345497
ĠIt 3.6884089
Ġwasn 2.8768752
't 0.15743126
Ġhis 2.7526321
Ġfault 0.20357996
! 4.4145756
ĠWell 4.8687434
Ġokay 7.0195403
, 0.2466943
Ġit 1.5762837
Ġmight 3.6495306
've 3.471598
Ġslightly 10.571458
Ġbeen 0.72614944
Ġhis 0.47267333
Ġfault 0.02975697
, 0.5114347
Ġhe 3.070034
'd 2.7485077
Ġstared 9.445265
Ġin 3.9562593
Ġthe 0.8792021
Ġmirror 1.0422409
Ġfor 2.2508805
Ġlike 3.216814
Ġan 2.4531617
Ġhour 0.053128745
, 1.5496979
Ġtrying 3.703083
Ġto 0.14395224
Ġget 2.5904076
Ġhis 1.6802511
Ġhair 1.3746915
Ġto 1.9845575
Ġlay 5.581504
Ġflat 0.7999568
, 0.94254225
Ġeven 5.759936
Ġthough 0.9090261
Ġhe 0.9943126
Ġ* 7.446282
k 3.2536836
new 0.006599083
* 0.045423176
Ġit 1.109481
Ġwas 1.1228021
Ġgonna 4.7359223
Ġfly 5.796924
Ġeverywhere 5.315751
Ġwhen 3.714751
Ġhe 0.3272072
Ġleft 4.614164
. 1.9701396
ĠFeeling 9.353038
Ġhis 4.120297
Ġmask 8.485233
, 2.230234
Ġhe 0.8177535
Ġrushed 6.248577
Ġinto 2.3815515
Ġthe 0.23632528
Ġbuilding 3.7825515
, 0.75041395
Ġopening 6.195926
Ġa 2.184143
Ġportal 1.2497675
, 2.0654483
Ġand 0.8957855
Ġfalling 6.3332877
Ġflat 6.0859213
Ġon 0.12025981
Ġhis 0.040109262
Ġface 0.28815356
Ġin 2.7584949
- 7.4124403
front 1.0959085
Ġof 0.020866614
Ġthe 0.9530305
ĠRed 2.0045352
ĠMistress 0.4276742
... 4.8660207
Because 9.371931
Ġof 2.6326175
Ġcourse 0.6862338
Ġthat 4.906647
Ġwould 2.225233
Ġhappen 1.265248
Ġto 4.7304544
Ġhim 0.5234612
. 1.0026474
Ġ" 4.403726
You 3.114347
're 1.8024979
Ġnot 2.4276543
Ġgetting 3.7445345
Ġaway 1.6605844
Ġwith 0.5021548
Ġthis 0.27961445
!" 1.5643177
ĠHe 2.8735235
Ġshouted 1.7694545
, 0.86302096
Ġas 2.7110069
Ġhe 0.8351887
Ġpulled 4.8706207
Ġhimself 2.790955
Ġto 2.203676
Ġhis 0.23031269
Ġfeet 0.0817252
. 0.987999
ĠAcross 10.455586
Ġfrom 1.5670395
Ġhim 0.13812885
, 0.6272828
Ġshe 4.086684
Ġjust 4.436717
Ġsmir 3.6744637
ked 0.007185686
, 1.0763756
Ġcasual 12.215644
Ġand 2.0048273
Ġcool 4.38066
Ġas 1.5898215
Ġshe 1.9679283
Ġalways 6.4996343
Ġwas 0.8409335
. 0.432687
ĠDam 9.970991
mit 0.3606478
, 0.7102707
Ġwhy 3.2775192
Ġwas 1.7131307
Ġhis 4.512643
Ġheart 3.6979175
Ġracing 1.8269131
? 1.4338664
ĠTaking 8.403108
Ġa 0.35123542
Ġdeep 0.97089076
Ġbreath 0.045260012
, 0.09703957
Ġhe 0.13277069
Ġraised 5.2221184
Ġhis 0.19540244
Ġfist 4.018095
, 1.0655942
Ġbut 4.8400784
Ġhis 3.6309087
Ġlegs 6.0550985
Ġwere 2.0436635
Ġshaking 2.6724021
. 1.9177808
ĠThis 4.511054
Ġhad 4.5226884
Ġ* 4.6684103
never 0.69406545
* 0.09687046
Ġbeen 2.967174
Ġeasy 5.1933217
, 2.2333379
Ġbut 1.5264682
Ġit 2.0836525
Ġwas 0.6796281
Ġgetting 3.0244625
Ġeven 4.933127
Ġmore 1.8168781
Ġdifficult 0.54489356
Ġnow 1.8361548
. 0.8703846
ĠC 6.9214444
ough 2.852052
ing 0.118054934
Ġinto 4.638601
Ġhis 0.14421459
Ġfist 1.9853802
, 0.059064183
Ġhe 0.17463554
Ġstarted 4.2791004
Ġwith 7.4493113
, 3.6726649
Ġ" 0.18181185
Just 5.607047
Ġlet 3.5344648
Ġhim 3.4694912
Ġgo 0.7213766
, 1.3304721
Ġand 2.7555072
ĠI 1.0661373
'll 0.3159405
," 9.797419
Ġ" 3.752656
You 2.2155886
'll 1.8310131
Ġwhat 0.2970874
, 3.456366
ĠVortex 11.510063
?" 0.499655
ĠThe 2.0091002
Ġpounding 10.623109
Ġof 1.5649225
Ġhis 0.47377205
Ġheart 0.6293502
Ġand 4.5125637
Ġracing 7.00518
Ġmind 5.556795
Ġmade 2.742363
Ġeverything 5.909419
Ġstop 3.7970505
; 5.6532416
Ġshe 3.8106585
Ġhad 2.7423763
Ġthat 4.3869214
Ġsm 5.7348638
irk 0.022065327
Ġagain 1.9462198
... 3.7209876
He 4.3674073
Ġcouldn 3.1960888
't 0.0006936328
Ġcontrol 5.0047007
Ġwhat 3.8140864
Ġcame 5.1763644
Ġout 0.29254007
Ġof 0.6066847
Ġhis 0.07498485
Ġmouth 0.060188122
, 0.7304673
Ġ" 1.9143327
And 5.1306787
ĠI 1.2389952
'll 0.58070296
Ġtake 3.66478
Ġyou 1.8505024
Ġon 3.6530046
Ġa 3.006716
Ġdate 0.5242025
," 3.7711697
Ġ* 4.094252
Yeah 7.4302115
Ġreal 13.254791
Ġsmooth 4.6860685
Ġdude 6.0578523
*. 1.6654809
ĠShe 2.4577208
Ġstared 5.484201
Ġat 0.20836952
Ġhim 0.062078483
Ġfor 1.3603369
Ġa 0.1550436
Ġmoment 1.1769763
, 0.21515566
Ġseemingly 6.5610995
Ġfl 6.2719607
ab 0.5399062
berg 0.0019743978
asted 0.0026959323
, 0.76235914
Ġ" 1.9168917
F 7.0362864
ucking 2.4293878
Ġ* 4.683067
Finally 12.117449
* 0.36864594
," 3.0200806
ĠShe 3.1012287
Ġsounded 6.6786366
Ġparticularly 9.470393
Ġfrustrated 5.2041373
, 0.61278176
Ġ" 0.5468201
I 1.7747982
've 2.5695357
Ġbeen 0.62533075
Ġwaiting 0.96629184
Ġfor 0.7729269
Ġyou 1.2218812
Ġto 1.0649668
Ġgrow 6.7936087
Ġa 2.7452488
Ġspine 2.8757713
Ġfor 1.803512
Ġ* 2.9704874
years 4.0374875
* 0.7116304
," 1.419094
ĠHe 2.5116692
Ġstared 4.3507524
Ġat 0.46808285
Ġher 0.09096988
Ġfor 1.496057
Ġa 0.25591883
Ġmoment 0.6119942
, 0.34766072
Ġcompletely 5.541249
Ġforgetting 5.561101
Ġthat 1.9249945
Ġthere 4.2520742
Ġwas 0.3900419
Ġan 3.3290572
Ġinnocent 5.965383
Ġcivilian 8.200366
Ġbetween 5.803829
Ġthe 3.5873673
Ġtwo 0.33829263
Ġof 0.055652484
Ġthem 0.01203499
. 0.7969403
ĠSe 9.293865
em 1.3225278
ingly 0.017041253
Ġshe 6.855822
'd 3.4380243
Ġforgotten 2.2739396
Ġas 4.4157834
Ġwell 0.06479378
, 0.3858906
Ġas 2.924645
Ġher 2.732125
Ġarm 4.8266745
Ġwent 3.052576
Ġlimp 4.7655163
, 0.85507834
Ġand 0.8298174
Ġthe 2.974366
Ġknife 6.6771116
Ġcasually 7.412239
Ġn 9.097764
icked 0.51030695
Ġa 3.5862303
Ġbit 4.8943076
Ġof 0.11757849
Ġthe 2.6571786
Ġdude 9.385058
's 0.09219308
Ġthroat 3.060007
. 0.5558621
ĠHe 2.263769
Ġwhim 6.966364
pered 0.0045143547
, 0.91961265
Ġand 2.0711327
Ġthey 6.362273
Ġboth 0.49760202
Ġstared 2.5004177
Ġat 0.20374773
Ġhim 1.9769626
. 2.013927
Ġ" 1.59083
Well 3.4152858
Ġthat 3.5797362
Ġwould 6.2092576
've 2.2414885
Ġsucked 7.398472
, 1.4360899
Ġgetting 7.048456
Ġthrown 6.2480617
Ġinto 1.5302491
Ġthe 1.2372465
Ġprison 6.212234
Ġright 6.300464
Ġbefore 1.9054677
Ġour 4.545097
Ġbig 2.0865724
Ġdate 3.2235727
," 0.90418446
ĠShe 0.9968242
Ġchuckled 3.3313956
, 0.47354048
Ġ" 0.73997194
Where 6.4931736
Ġdo 2.3573284
Ġyou 0.30916554
Ġwanna 4.504082
Ġmeet 4.71396
? 2.7756424
ĠI 1.379331
Ġknow 2.9218924
Ġthis 3.6899576
Ġgreat 7.857715
ĠItalian 7.8422375
Ġplace 1.1216964
Ġright 3.708059
Ġoff 2.748783
Ġof 1.6091473
ĠMain 4.9241195
ĠStreet 0.3422908
," 2.106239
ĠHis 4.6245337
Ġheart 2.139118
... 8.789482
Was 5.6629353
Ġsteadily 12.184896
Ġcalming 8.589208
Ġdown 0.26069444
. 1.2674623
ĠOh 6.2105203
, 1.850595
Ġthe 3.7434385
Ġanxiety 6.896676
Ġwas 1.7291708
Ġcertainly 7.4863625
Ġstill 4.405586
Ġthere 0.25544432
; 3.8396277
Ġpractically 9.751322
Ġevery 2.770179
Ġtime 1.6496925
Ġshe 3.22167
Ġlooked 3.2178013
Ġat 0.1987333
Ġhim 0.07170317
Ġit 4.001276
Ġwent 7.0567517
Ġright 3.114147
Ġback 1.2829765
Ġto 0.3257149
Ġheart 8.241277
Ġattack 5.355812
Ġlevels 5.6937904
; 4.7849536
Ġbut 2.3425822
Ġthis 3.5345666
Ġwas 2.1287844
Ġgood 5.1321783
, 1.1356021
Ġhe 1.5804266
'd 2.523222
Ġ* 3.5592995
f 5.3289723
inally 0.10323329
* 0.013092588
Ġdone 4.922736
Ġit 0.8293106
. 0.7657078
Ġ" 1.6067976
U 5.981565
- 5.1123724
umm 4.6531434
... 0.8635463
Send 11.259964
Ġme 0.9335966
Ġthe 2.1674027
Ġaddress 0.7913414
Ġyeah 11.225179
? 2.302104
ĠI 0.83691776
Ġknow 3.6443846
Ġyou 2.327524
Ġhave 3.2572813
Ġmy 3.8031816
Ġnumber 0.9067673
Ġbecause 6.393819
Ġyou 1.1489275
Ġuh 8.7399845
..." 2.1706264
Ġ* 3.247588
She 4.0753593
Ġprobably 5.920432
Ġalready 3.6646383
Ġknows 1.9639963
, 3.0877488
Ġdumb 10.096662
ass 0.28306836
, 2.5218828
Ġshe 2.3094583
's 1.0115261
Ġthe 3.2322977
Ġone 1.6657314
Ġthat 1.6073718
Ġsent 3.732261
Ġyou 2.1241486
Ġthe 2.2428446
Ġlocation 5.4832573
, 1.5852257
* 2.0072465
Ġ" 2.1214724
Right 5.1984963
, 1.7142882
Ġwell 3.3955388
... 4.171305
Um 5.710248
, 1.4879031
Ġsee 5.0265274
Ġya 1.5759504
Ġaround 3.5523162
?" 2.8416967
ĠShe 1.5083317
Ġsmir 3.0905404
ked 0.0063336203
, 0.5148174
Ġ" 1.4094973
Yeah 3.485342
, 0.7041846
Ġsee 1.679271
Ġya 0.2058266
. 2.8550515
ĠNow 3.7042224
ĠI 3.3123243
Ġgot 3.9672582
Ġa 1.7395121
Ġbank 10.74698
Ġto 2.2864888
Ġrob 4.0637827
Ġon 5.3080297
Ġfirst 8.819377
Ġstreet 5.739809
Ġif 5.314945
Ġyou 0.5374854
Ġdon 2.5323067
't 0.003230206
Ġmind 1.9836165
," 1.9603894
Ġ" 2.915738
Oh 2.596971
, 1.29475
Ġokay 4.041345
... 2.6275315
Hey 4.919377
Ġwait 4.9241023
!" 3.9014754
ĠBut 6.078393
Ġshe 1.5227339
Ġwas 1.0636612
Ġalready 0.43101367
Ġgone 1.5590289
, 0.6099889
Ġflying 4.9049582
Ġthrough 2.5002878
Ġan 4.5519714
Ġalready 5.915033
Ġshattered 4.466965
Ġwindow 1.3075922
, 0.81418025
Ġ" 3.5410557
I 2.5625806
... 4.780738
Don 4.9979997
't 0.006364333
Ġthink 3.5915656
ĠI 0.879097
Ġcan 1.6747535
Ġhandle 3.4838529
Ġgoing 5.0967965
Ġafter 3.969607
Ġher 2.0127797
Ġright 3.1850684
Ġnow 0.082328655
," 1.1329925
Ġ" 2.8316896
Would 6.188645
n 0.43464327
't 0.0012612076
Ġblame 7.470243
Ġyou 0.23497568
," 1.451583
ĠThe 2.8893096
Ġjournalist 9.983607
Ġon 6.4106297
Ġthe 0.31617206
Ġfloor 3.2887766
Ġsaid 3.8572478
, 0.57500935
Ġ" 1.2446501
Good 7.0795183
Ġluck 1.2837793
Ġon 3.850071
Ġyour 1.7927258
Ġdate 0.32707193
Ġtonight 5.146362
," 1.34748
Ġ" 1.6399344
Yeah 2.4102533
, 0.74916375
Ġthanks 2.594079
. 2.7907293
ĠDo 5.6990404
Ġyou 0.32362556
Ġu 11.865385
mm 1.5687063
... 0.9818132
Need 2.9509974
Ġanything 1.1172498
?" 0.66586316
ĠThe 2.3507903
Ġman 2.8087008
Ġon 1.4672226
Ġthe 0.04657851
Ġfloor 0.5031146
Ġchuckled 4.534358
, 0.33105612
Ġ" 0.3313396
No 1.7558697
, 0.476458
ĠI 1.0641062
Ġthink 2.4641116
ĠI 0.45219895
'm 1.5310669
Ġjust 2.5371132
Ġgonna 0.35954696
Ġlay 4.6337433
Ġhere 3.117191
Ġfor 1.2486763
Ġa 0.15165131
Ġbit 1.1309164
," 1.9196637
