Sea 9.463925
, 6.0891147
ĠOne 7.5766315
Ġtrue 9.624225
Ġmistress 11.139614
Ġof 0.5899148
Ġmy 4.71465
Ġheart 1.5584985
, 1.801972
ĠWrap 13.452259
Ġme 1.1822759
Ġin 0.40213096
Ġyour 0.6926188
Ġembrace 4.198905
ĠAs 6.2533627
Ġyou 2.252887
Ġonce 7.0755725
Ġenvelop 6.5826592
ed 0.08502177
Ġmy 1.8038131
Ġmind 4.265006
Ġand 3.1217892
Ġsoul 1.228549
. 2.5361826
ĠYou 3.4085243
Ġen 8.339718
am 3.7456002
ored 0.40207642
Ġme 0.9483813
Ġas 3.8764687
Ġa 1.8423465
Ġlad 10.424064
, 1.1849855
ĠAnd 3.4340315
ĠI 1.9007529
Ġsat 8.529909
Ġforth 9.149264
Ġto 2.3200126
Ġtame 9.541082
Ġyou 2.112664
Ġas 4.182773
Ġmy 3.0604324
Ġqueen 3.417062
, 2.6759536
ĠBut 3.1038804
Ġtimes 8.189805
Ġgrew 7.7096243
Ġhard 3.052148
ĠAnd 4.8022776
Ġto 6.395319
Ġdarkness 11.429096
ĠI 2.293001
Ġturned 2.068642
Ġto 2.6517131
Ġsurvive 9.9705
. 1.1296353
ĠI 1.9680549
Ġlearned 5.2257133
Ġat 6.3890305
Ġmy 2.6155787
Ġmaster 4.0425935
's 0.33893883
Ġhand 2.2525344
, 0.7202068
ĠEvery 7.5571356
Ġsailor 8.549762
's 0.8263102
Ġfunction 9.292674
, 1.7022481
ĠBut 3.327716
Ġit 3.70899
Ġhappened 8.637232
Ġmy 4.672995
Ġwatch 8.4452505
ĠWas 7.676312
Ġthe 4.2477055
Ġnight 3.6568923
Ġof 2.181596
Ġterrible 9.023217
Ġstorm 2.5199363
. 0.7382132
ĠLightning 8.7155
Ġflashed 2.8511596
, 1.7420821
Ġthe 2.8429801
Ġsea 2.5876806
Ġroared 3.9809089
, 0.40870324
ĠGale 13.18589
- 2.4282327
blown 4.878324
Ġrain 5.923769
Ġst 4.9815607
ung 0.29744044
Ġthe 2.7331707
Ġeyes 2.9820752
, 0.85411865
ĠL 6.4576726
ashing 1.2459527
Ġmyself 7.0854483
Ġto 1.5885756
Ġthe 0.65563536
Ġwheel 5.7426815
ĠI 2.609855
Ġstayed 6.336522
Ġat 3.8911424
Ġmy 2.8847966
Ġpost 1.8444899
. 1.8757049
ĠWith 4.694458
Ġmorning 8.603411
's 1.4734114
Ġfirst 3.1560018
Ġlight 1.2090095
, 1.2595816
ĠThe 2.9054978
Ġdamage 8.917649
Ġplain 10.117023
, 1.2086703
ĠThe 2.3844218
Ġcaptain 4.8859468
Ġand 3.851131
Ġa 6.296775
Ġdozen 3.1012323
Ġothers 2.1741838
ĠW 7.328343
ashed 3.2243292
Ġo 6.521365
' 1.0018574
er 0.032114454
Ġin 5.022515
Ġthe 1.717403
Ġnight 4.80826
. 1.3300297
ĠI 1.7720267
Ġtook 4.806898
Ġher 6.1449857
Ġback 3.1846843
Ġto 0.48578212
Ġport 1.6165332
, 0.52772194
ĠLim 10.2177515
ping 0.19849987
Ġour 7.057206
Ġway 1.4791254
Ġthere 5.5668674
, 0.8008699
ĠAs 4.408155
Ġranking 14.302575
Ġsurvivor 8.872744
ĠThe 5.205583
Ġship 3.145563
Ġbecame 6.505287
Ġmine 4.839037
. 0.4671428
ĠI 1.6379864
Ġtried 5.4595194
Ġthe 4.0585628
Ġstraight 9.187352
Ġand 1.945039
Ġnarrow 0.46769315
, 0.4073499
ĠBut 1.337091
Ġwork 9.674045
Ġwas 1.2765208
Ġdifficult 5.6361923
Ġto 3.60596
Ġfind 1.3194515
, 0.733601
ĠWhile 5.4978027
Ġa 3.8935533
Ġslow 7.0289207
, 3.4592092
Ġfat 7.595836
Ġtreasure 10.24968
Ġship 4.0745564
ĠPro 8.246804
ved 1.2136296
Ġa 2.386121
Ġfeast 6.5622272
Ġin 4.003435
Ġthe 1.509707
Ġmidst 5.627653
Ġof 0.84082043
Ġfamine 4.61284
. 0.10835979
ĠSlowly 7.3257246
Ġmy 3.2842624
Ġskills 5.3630376
Ġas 4.613086
Ġa 0.35362744
Ġpirate 4.389172
Ġgrew 0.9637774
, 0.17611519
ĠMy 3.7809725
Ġreputation 4.5556755
Ġtoo 7.5699177
, 1.4770938
ĠRep 10.324633
utation 0.6818882
Ġgave 6.2139993
Ġme 0.44682583
Ġstrength 3.1170309
ĠNot 7.5053153
Ġrequiring 10.30906
Ġblood 5.106458
. 3.393199
ĠIn 4.027423
ĠTort 10.973722
uga 0.11548581
ĠI 1.2438561
Ġtook 4.1200876
Ġon 3.266824
Ġfour 7.4677
, 3.018412
ĠStrong 6.9566708
, 2.2540095
Ġable 5.961751
Ġseam 6.1138997
en 0.005437928
, 0.8763087
ĠThis 7.415622
Ġbrought 5.4832277
Ġour 5.477866
Ġcrew 2.4678276
Ġback 4.0813046
Ġto 0.9158833
Ġnine 7.9865546
ĠEach 9.541756
Ġpromised 8.926568
Ġan 5.113423
Ġequal 3.2563806
Ġshare 0.7806457
. 0.6980113
ĠA 4.127939
Ġweek 4.8802156
Ġout 4.1043468
Ġwe 3.392642
Ġfound 2.804232
Ġprey 8.157456
, 0.46175238
ĠA 1.9390227
ĠSpanish 4.868159
Ġtreasure 3.654632
Ġgall 9.387142
ion 6.7938566
, 0.7026129
ĠShe 5.4599214
Ġwas 1.5692439
Ġeasy 6.0253644
Ġpick 3.1608288
ings 0.08815256
ĠHer 7.6079574
Ġcrew 2.0050616
Ġwanting 9.327165
Ġonly 4.5684557
Ġto 1.9416097
Ġlive 4.2626286
. 0.84441036
ĠWe 3.3423226
Ġleft 5.18298
Ġwith 3.454051
Ġour 2.1665008
Ġboot 4.1712866
y 0.025899861
, 0.58325535
ĠIntent 9.876561
Ġto 1.9989843
Ġst 9.281047
ow 0.26052204
Ġit 1.58232
Ġsafely 4.644662
, 1.2642115
ĠI 3.470765
Ġdid 4.6117983
Ġnot 0.40200478
Ġknow 2.2405849
ĠWhat 6.401908
Ġwas 2.990042
Ġheading 8.511539
Ġmy 1.3734431
Ġway 0.42587116
. 0.7146278
ĠWe 3.6863713
Ġcame 3.6075675
Ġashore 3.2789748
Ġon 2.3498776
Ġthe 1.169075
Ġsmall 6.1584754
Ġisland 0.4454298
, 0.6595915
ĠBur 8.849421
ying 2.3280194
Ġour 1.1006448
Ġtreasure 1.3599172
, 1.8376211
ĠI 2.3401282
Ġturned 5.310805
Ġto 0.92110384
Ġfind 2.547371
Ġthem 5.7525973
Ġstaring 7.2948184
ĠAnd 6.196898
Ġa 3.7878697
Ġsecond 5.732298
Ġhole 9.646287
-- 8.78129
my 3.6692126
Ġsize 9.988321
. 1.5011073
ĠIt 4.1145616
Ġseems 5.3520617
Ġthey 1.7072994
Ġhad 1.731792
Ġbeen 2.2159727
Ġtalking 7.8831472
, 1.1894696
ĠAnd 1.9101218
Ġthe 2.8350084
Ġthing 6.1310697
Ġhad 3.911847
Ġbeen 1.5499611
Ġdecided 7.8871827
, 1.4461339
ĠIt 3.8466694
Ġwas 0.58073205
Ġeasier 7.039556
Ġto 0.48123282
Ġdivide 7.587644
ĠA 5.9375997
Ġtreasure 3.513603
Ġamong 4.170341
Ġ8 9.084708
, 1.8638375
Ġnot 6.5321107
Ġ9 2.4514236
. 0.4683618
ĠNow 4.771227
ĠI 1.2600572
Ġstare 7.0583763
Ġout 3.859452
Ġat 1.4582843
Ġthe 0.43413463
Ġwater 4.2119346
, 0.42240512
ĠGl 7.1047764
ist 5.1506157
ening 0.017350024
Ġas 3.3990304
Ġit 2.802317
Ġrolls 3.7984185
, 1.3914537
ĠCl 7.0436254
oser 1.6382103
, 3.056654
Ġcloser 0.6669305
ĠMy 7.7129664
Ġtime 5.070082
Ġeb 9.385986
bs 0.1753423
Ġaway 2.1685438
. 0.99527466
ĠThe 2.9459503
Ġgrit 10.855252
Ġof 0.91146916
Ġsand 4.6400166
Ġon 3.9085965
Ġmy 0.36940622
Ġneck 4.9970727
, 0.73922473
ĠThe 1.2053981
Ġsalt 3.1318426
Ġof 1.3487543
Ġtide 6.753563
Ġin 3.1620977
Ġmy 0.06541345
Ġnose 3.2612567
, 0.3733086
ĠSoon 6.8868756
Ġwe 4.1424456
Ġwill 1.8433986
Ġbecome 5.8690834
Ġone 1.2404524
ĠAs 4.973774
Ġwe 1.412918
Ġwere 5.5324626
Ġmeant 3.6723742
Ġto 0.05048153
Ġbe 0.10382263
. 0.6855062
Ġ----- 10.90005
Ġ( 4.787228
Word 8.646303
Ġcount 1.1008625
: 0.41396067
Ġ311 8.386149
. 3.5094516
ĠPlease 7.813998
Ġlet 3.74337
Ġme 0.060617156
Ġknow 0.009256596
Ġwhat 2.5225203
Ġyou 0.23862202
Ġlike 5.321045
/ 4.3500776
dis 0.78359824
like 0.010537659
Ġabout 1.536101
Ġthe 2.4624567
Ġpost 6.1679177
. 1.7028658
ĠThank 4.4791155
Ġyou 0.04486963
Ġin 5.544181
Ġadvance 0.006198367
Ġfor 2.00825
Ġyour 1.252712
Ġtime 3.5990376
Ġand 1.8176305
Ġattention 2.4824624
. 1.990275
ĠOther 8.700943
Ġworks 4.4104877
Ġcan 5.625916
Ġalso 3.479027
Ġbe 0.07616168
Ġfound 0.18573356
Ġlinked 9.3784895
Ġin 1.3771824
Ġr 8.877134
/ 1.2589077
at 10.2529335
croft 12.392494
_ 4.4244623
word 8.432672
craft 6.368617
.) 1.9870716
