# 6.153689
ĠSoul 10.976308
mage 8.851922
Ġ** 8.19769
" 5.930835
Luc 9.741774
et 8.530402
?" 8.348941
** 2.5988975
ĠI 4.193873
Ġasked 2.6568186
, 1.7740158
Ġpro 9.082251
pping 0.8198405
Ġmyself 1.3387637
Ġup 0.36891663
Ġon 0.6242687
Ġthe 1.2658697
Ġhospital 8.382793
Ġbed 0.29179308
. 0.6166605
Ġ" 1.6122772
Yes 2.3857617
, 1.2723271
ĠC 7.811902
ienne 12.300117
?" 1.5845953
ĠLuc 5.111297
et 0.54827565
Ġasked 2.778122
, 0.62643117
Ġnot 4.213399
Ġlooking 2.0409205
Ġup 1.0999287
Ġfrom 0.3524957
Ġthe 1.3923358
Ġform 7.513766
Ġshe 1.220259
Ġwas 0.36367935
Ġfilling 3.5575652
Ġout 0.33253008
. 0.6772754
Ġ" 0.7543739
Where 4.4721494
Ġdid 2.3786597
Ġyou 0.37414345
Ġget 1.4566017
Ġall 4.1210203
Ġthat 1.7893294
Ġblood 4.058815
?" 0.63206345
ĠI 0.7555104
Ġpointed 6.6839366
Ġat 1.720672
Ġthe 0.62966925
Ġdistress 12.965793
ingly 3.1562328
- 4.6355157
large 2.7995522
, 3.5866966
Ġr 7.0791526
ipp 1.6832702
ling 0.7573662
Ġorb 9.123673
Ġof 2.1195538
Ġblood 1.7475833
Ġhovering 6.4679008
Ġin 1.9222708
Ġthe 0.78691745
Ġair 0.6488524
Ġa 4.7883415
Ġfew 0.37072563
Ġfeet 0.14613914
Ġbehind 4.1491466
Ġher 1.3806658
. 0.20759745
ĠAsh 11.778328
ry 9.511371
m 6.782686
arn 13.538342
Ġpoked 7.650411
Ġtheir 6.9801936
Ġdripping 10.338384
Ġhead 1.1930227
Ġin 2.683134
Ġfrom 3.208289
Ġthe 0.43975878
Ġreception 7.992936
ist 2.041022
's 0.5663213
Ġroom 4.0506964
. 1.0105308
Ġ" 0.33421108
Hum 8.962294
ans 0.49984208
," 3.1320558
Ġthe 2.9243805
ĠBlood 7.571058
ĠAngel 4.44539
Ġhelp 9.112202
fully 0.0011975324
Ġsaid 2.507398
. 0.61343956
Ġ" 0.3222876
S 5.423791
ays 4.267105
Ġso 2.3059916
Ġright 3.2319536
Ġhere 0.6053515
Ġon 2.7571635
Ġthe 0.5325608
Ġpaperwork 4.754916
." 0.46975735
Ġ" 1.3827184
That 3.698977
's 0.55922776
Ġnot 1.8391815
Ġwhat 2.1754472
ĠI 0.6781114
Ġmeant 0.9523749
, 2.3531227
Ġand 4.8640556
Ġnobody 8.152382
Ġwas 4.815334
Ġtalking 4.870409
Ġto 1.7699002
Ġyou 2.5662885
, 2.2906566
ĠAsh 4.0458064
ry 0.34824982
m 0.023927247
arn 0.44047216
," 0.83147466
ĠI 0.3281778
Ġsaid 0.80677
. 1.2993214
ĠThe 5.309426
ĠBlood 3.2243075
ĠAngel 0.036903203
's 3.0508235
Ġor 10.577606
ific 2.5251667
es 0.0029824325
Ġcont 7.9204373
orted 0.053402215
Ġin 1.5957597
Ġcontr 9.155243
ition 0.11887539
Ġand 3.217404
Ġjer 8.795085
ked 0.25830248
Ġback 2.4353552
Ġaway 3.9171958
Ġfrom 0.22445911
Ġthe 1.5284407
Ġdoor 5.157355
. 0.5832141
ĠOops 10.688804
. 0.3098988
ĠBlood 6.5227838
ĠAngels 4.2312727
Ġwere 2.325435
Ġbeings 9.291015
Ġof 0.3942722
Ġpure 2.5433166
Ġfear 6.2123585
— 6.1928387
which 5.358585
Ġdidn 4.6572285
't 0.00084717636
Ġmean 3.2462556
Ġthat 2.1610727
Ġthey 0.44061324
Ġinspired 10.928534
Ġfear 1.9442496
Ġin 0.89566314
Ġothers 1.5175685
, 1.6411856
Ġunfortunately 4.8093896
Ġfor 3.9586267
Ġthem 2.1638012
. 0.14741105
ĠNo 6.1272917
, 0.65662456
ĠAsh 4.104882
ry 0.021405263
m 0.005586265
arn 0.011292766
Ġwas 1.242709
Ġterrified 4.069882
Ġof 0.58595824
Ġbasically 9.299927
Ġeverything 1.2277516
, 1.4335883
Ġfrom 3.0633664
Ġsocial 9.491074
Ġrejection 5.692327
Ġto 0.16962601
Ġmice 10.110397
. 1.4361763
ĠExcept 6.901474
, 1.9112401
Ġapparently 3.0524595
, 0.08636371
Ġfor 5.998705
Ġgiant 7.3746433
Ġorbs 5.839382
Ġof 0.22447313
Ġblood 0.49466282
. 1.4616673
ĠWhich 3.8708348
ĠI 2.953609
Ġguess 2.5450022
Ġmade 2.1994922
Ġsense 1.4667438
, 1.2285419
Ġsince 1.20472
ĠAsh 3.845687
ry 0.012916324
m 0.007985887
arn 0.014209041
's 2.2701404
Ġown 4.8551
Ġbody 3.1788754
Ġwas 0.60703355
Ġmade 1.5829343
Ġof 0.67813474
Ġnothing 6.2587
Ġbut 0.09788606
Ġthe 3.8073437
Ġstuff 2.830353
. 0.58272314
Ġ" 1.1835545
No 4.460867
, 0.5192684
Ġseriously 6.131779
, 0.751718
ĠLuc 3.5947418
et 0.0581144
. 1.2603794
ĠThis 4.193185
Ġis 0.7892211
Ġworse 7.219086
Ġthan 0.038777277
Ġthe 2.0042384
Ġtime 4.443106
Ġyou 0.77489996
Ġdonated 9.350774
Ġthree 6.691106
Ġkidneys 7.3438416
." 2.6008146
Ġ" 0.7563876
You 3.257301
Ġdonate 6.725713
Ġa 2.614125
Ġpint 8.692055
Ġof 0.21519506
Ġblood 0.25621235
, 2.1664822
Ġyou 2.833527
're 2.4518878
Ġa 1.8909785
Ġhero 3.0453212
; 6.4248605
Ġyou 1.3952565
Ġdonate 2.4279823
Ġtwenty 5.871902
Ġgallons 2.959604
Ġof 0.23057574
Ġblood 0.6359141
, 0.4126779
Ġyou 0.4662046
're 0.090471976
Ġa 0.27355012
Ġvillain 2.2130842
," 1.1780281
ĠLuc 1.3717718
et 0.0048273685
Ġsaid 1.0360942
, 0.63795066
Ġaiming 7.8874855
Ġfor 2.4139323
Ġa 1.9477994
Ġlaugh 3.7951295
. 0.42903098
ĠBut 4.546577
Ġit 1.8702239
Ġcame 1.7096041
Ġout 0.089077294
Ġst 5.3491673
il 1.017365
ted 0.0031238298
Ġand 0.7185509
Ġqu 7.6445084
avering 0.7849356
, 1.4119742
Ġand 1.387458
ĠI 1.014977
Ġdidn 3.3111959
't 0.00065277616
Ġneed 4.543178
Ġto 0.9732662
Ġbe 1.8603354
Ġa 2.8491483
ĠBlood 2.435754
ĠAngel 0.01787476
Ġto 0.15316005
Ġsee 2.3105166
Ġshe 5.5162783
Ġwas 0.3585662
Ġnervous 4.0909834
. 0.23918591
Ġ" 0.7323758
Eh 9.062666
? 2.7390075
ĠEh 6.062214
?" 1.5432487
ĠAnd 7.339555
Ġall 5.6943617
Ġthat 2.470848
Ġtime 3.314821
, 1.5379328
Ġshe 1.3440186
Ġhadn 2.2048616
't 0.0004895429
Ġlooked 5.019904
Ġup 1.1785966
Ġfrom 0.5744894
Ġher 0.55566025
Ġpaperwork 2.727421
. 0.40102437
ĠShe 3.0720572
Ġwas 1.2719299
Ġavoiding 5.6724567
Ġeye 1.6414688
Ġcontact 0.025958402
, 1.4548594
ĠI 5.983879
Ġrealized 2.878774
. 1.0217395
Ġ" 1.5335851
I 2.0282989
'm 1.5881457
..." 7.1874433
ĠI 1.1557174
Ġrubbed 6.1465178
Ġmy 0.5544266
Ġforehead 1.838691
. 1.0130756
Ġ" 0.43385422
Look 6.8134475
, 0.36150947
ĠLuc 2.9008615
et 0.012827509
, 0.82885337
Ġjust 4.7077293
... 2.6055174
Ġtell 4.445417
Ġme 0.15151383
Ġthat 3.0363102
Ġyou 1.4757384
Ġran 8.57025
Ġa 2.290869
Ġblood 1.3828002
Ġdrive 0.627046
, 2.3867207
Ġor 3.0828235
Ġsomething 0.460532
. 1.2486278
ĠTell 4.854207
Ġme 0.051117618
Ġthat 1.4225489
Ġwhoever 7.885745
Ġthis 4.1867166
Ġblood 3.342354
Ġcame 5.073216
Ġfrom 0.025369918
Ġis 1.2618502
Ġstill 4.2362847
Ġalive 0.5907615
." 1.2710524
ĠLuc 1.9316952
et 0.011221576
Ġbit 5.6321535
Ġher 0.116164036
Ġlip 0.3594463
. 1.4820485
Ġ"... 4.5027347
Okay 4.819816
. 1.5002
ĠOkay 1.948194
, 1.8864373
Ġfine 3.0697086
. 0.45426786
ĠYou 3.2873333
Ġwant 2.9813242
Ġto 0.9441108
Ġknow 1.3192638
Ġwhere 3.0208476
ĠI 1.459258
Ġgot 0.28850275
Ġthis 2.2223136
Ġblood 0.9138898
Ġfrom 2.0461152
?" 0.7523174
ĠShe 2.7155898
Ġreached 4.704244
Ġinto 1.094784
Ġher 0.3274618
Ġpocket 2.3117795
, 1.4363285
Ġpulled 1.0904119
Ġout 0.056336906
Ġa 0.4304163
Ġsketch 7.7413073
, 2.0628967
Ġand 0.10268426
Ġtossed 4.5815363
Ġit 0.039444145
Ġat 2.2025244
Ġme 0.1128653
. 0.083684735
ĠIt 3.7637138
Ġwas 0.43955043
Ġthe 3.2309937
Ġsc 6.5840383
ow 5.022711
ling 0.11116175
Ġface 1.8484193
Ġof 0.07832998
Ġa 0.7262143
Ġmiddle 5.3828335
- 0.13309467
aged 0.028545765
Ġwoman 1.9170865
. 1.9214505
Ġ" 1.1652884
* 10.28257
That 2.583521
* 0.78141606
," 4.166046
ĠLuc 1.6644764
et 0.003837221
Ġsaid 0.45304313
, 0.49358165
Ġ" 2.0566838
was 3.0207174
ĠH 9.520325
r 4.7668476
z 4.3243628
yn 3.815283
. 2.979802
ĠA 3.682555
Ġmemory 9.432396
- 2.3510313
editor 8.689762
Ġand 4.5709105
Ġwitch 6.865307
Ġwho 3.4753313
Ġhad 4.5615444
Ġbeen 2.2177665
Ġembed 13.262988
ding 0.032742206
Ġlabor 10.25477
Ġcompuls 12.002846
ions 0.20246448
Ġin 2.0970135
Ġ* 7.1188684
children 7.975063
* 1.1730369
Ġuntil 4.9685764
Ġthey 2.1844423
Ġworked 7.368154
Ġthemselves 2.5827892
Ġinto 1.0580413
Ġcat 8.918712
at 0.08643006
onia 0.6301813
. 1.0716671
ĠShe 1.78033
Ġwas 1.4805263
Ġa 2.1164942
Ġmonster 5.300384
Ġand 3.4926817
Ġa 1.4682106
Ġdanger 5.745209
Ġto 0.33681387
Ġsociety 3.0178835
, 0.9193526
Ġand 0.99675894
Ġsomeone 6.0185575
Ġneeded 3.6735752
Ġto 0.09013274
Ġput 3.831336
Ġher 1.6979704
Ġdown 1.164265
." 0.8226549
ĠI 1.4873554
Ġset 6.584115
Ġdown 2.268657
Ġthe 0.74503565
Ġsketch 0.64573336
. 1.6262978
Ġ" 0.602651
So 2.6552513
Ġyou 2.0036662
Ġkilled 5.299582
Ġher 0.35581616
Ġand 3.2783833
Ġdrained 5.211914
Ġher 0.44213796
Ġblood 0.6138924
." 2.3931
ĠLuc 1.6339647
et 0.0044613057
Ġthrew 6.3146296
Ġher 1.125163
Ġhands 0.54383886
Ġin 1.3702419
Ġthe 0.033533797
Ġair 0.005722936
. 0.2949025
Ġ" 0.0977013
She 3.5161579
Ġwasn 2.688016
't 0.004187611
Ġusing 7.5980844
Ġit 3.2388692
! 3.705909
ĠAnd 4.249061
... 4.218921
Ġand 2.241102
Ġyou 4.1782637
Ġneed 4.9681406
Ġa 3.7890222
Ġtransf 6.2024217
usion 0.009169428
. 1.9980462
ĠThe 3.9951375
Ġmedicine 6.3514156
Ġthey 4.664091
're 2.8732061
Ġgiving 1.1470956
Ġyou 0.48374093
Ġto 4.1101437
Ġfight 4.1688995
Ġthe 1.0528034
Ġcancer 5.525573
Ġis 1.230412
Ġfucking 6.556426
Ġup 4.6458955
Ġyour 0.5479123
Ġblood 1.2612573
. 1.9818817
ĠIf 3.7558525
ĠI 1.8003669
Ġcan 2.608486
Ġtake 5.0959377
Ġout 3.765837
Ġsomeone 6.7718425
Ġwho 1.9832014
Ġpre 10.7446375
ys 0.12819667
Ġon 0.030887015
Ġthe 2.1923647
Ġinnocent 2.2335093
Ġand 2.8690283
Ġsave 6.368138
Ġsomeone 3.2152603
ĠI 4.559645
Ġcare 1.0268723
Ġabout 0.04657383
Ġmore 6.867267
Ġthan 0.16945335
Ġanyone 1.9184358
... 4.2675657
Ġwho 5.4538374
Ġloses 9.688101
?" 5.9373527
Ġ" 1.0191481
You 2.3029654
Ġdo 4.556228
," 3.6357093
ĠI 0.057014197
Ġwhispered 6.3738422
. 0.663744
Ġ" 0.44354507
I 2.0983393
Ġknow 2.9218552
Ġhow 3.9411616
Ġrisky 9.549241
Ġit 0.8929865
Ġis 0.14089711
Ġto 1.7679462
Ġfight 5.4743233
Ġsomeone 3.7460523
Ġto 6.1430225
Ġthe 2.8382776
Ġdeath 0.066271804
, 0.948284
ĠLuc 2.6125453
et 0.0059136446
. 0.7885043
ĠOr 5.9911027
Ġdid 8.149581
Ġyou 0.18982092
Ġforget 1.3819617
Ġwhy 5.496239
ĠI 2.3021736
'm 1.1920594
Ġin 3.8118913
Ġthis 1.0516119
Ġhospital 0.73291326
Ġbed 6.126273
Ġin 3.4110599
Ġthe 0.011234895
Ġfirst 0.00865182
Ġplace 0.0024411248
? 1.0871327
ĠI 1.5773647
Ġknow 3.5062878
Ġthe 3.3228552
Ġhospital 7.6077647
's 2.0400202
Ġlow 8.463492
Ġon 0.62150717
Ġsupplies 2.0466795
, 0.7241381
Ġbut 1.3994862
Ġit 2.6837113
Ġdoesn 3.0516727
't 0.0006415621
Ġhave 1.561661
Ġto 1.1219487
Ġbe 0.2171687
Ġy 12.77828
—" 8.188608
Ġ" 0.61828905
* 6.0233994
Then 6.1833296
Ġwho 5.6074204
? 2.5028725
* 0.04066043
" 1.1603677
ĠLuc 0.40769473
et 0.0019798356
Ġspun 8.140298
Ġtowards 5.449605
Ġme 0.26842564
, 0.6834483
Ġnaked 8.402585
Ġfrustration 6.8158045
Ġin 1.6025578
Ġher 0.12601204
Ġeyes 0.6128294
. 0.06772796
Ġ" 0.32799327
There 4.327866
Ġis 2.3759966
Ġno 0.502391
Ġcavalry 11.971865
, 1.6189837
ĠC 1.9790118
ienne 0.27725625
. 0.4415807
ĠIf 3.831747
ĠI 1.788209
Ġdon 2.858245
't 0.00085850776
Ġfight 3.7447886
Ġfor 3.5390613
Ġyou 1.6760832
, 0.38080293
Ġnobody 4.905023
Ġwill 0.92954797
. 0.53927237
ĠYou 2.045897
... 5.9770684
Ġyou 0.80180115
Ġwere 4.370961
Ġthe 2.0883424
Ġonly 1.5151042
Ġone 0.7549949
Ġwho 0.6290948
Ġstood 3.2859213
Ġup 0.35099936
Ġfor 1.026747
Ġpeople 6.095771
Ġlike 1.7015214
Ġthat 3.8989336
. 1.1699322
ĠAnd 2.2994027
Ġnow 2.5583973
Ġyou 1.183801
're 0.62960255
Ġhurt 7.6757913
, 1.4319836
Ġand 0.49038944
Ġyou 1.2583996
Ġdon 2.6201937
't 0.0010861811
Ġeven 1.2583137
Ġwant 2.850707
Ġme 2.1220438
Ġto 0.73827523
Ġ* 6.868016
try 3.394068
* 0.23081124
Ġto 0.31009024
Ġhelp 0.79343057
Ġyou 0.33315647
? 4.1439705
ĠJust 4.85105
... 1.8694018
Ġyou 3.5666254
Ġprotected 11.692764
Ġme 1.1597296
Ġso 4.7136602
, 6.438872
Ġ* 4.818531
so 2.925869
* 0.0957525
Ġmany 4.56295
Ġtimes 0.16159484
. 1.4481236
ĠLet 6.2568536
Ġme 0.22766922
Ġtake 3.524986
Ġcare 0.8356028
Ġof 0.005318795
Ġyou 0.96542495
, 1.3147656
Ġfor 4.0601573
Ġonce 1.5146149
." 1.3326155
ĠI 1.1505194
Ġclosed 3.720209
Ġmy 0.022557063
Ġeyes 0.046183243
. 1.2922188
ĠSomewhere 9.668
, 1.5897127
Ġthe 2.9480424
Ġremains 9.343717
Ġof 0.0067873187
Ġa 1.2942613
Ġmonster 5.962057
Ġwere 1.0517551
Ġprocessed 11.642721
Ġinto 1.6106402
Ġa 1.2614257
Ġlife 5.6216216
Ġfor 4.6727915
Ġan 4.3139906
Ġinnocent 1.272562
. 1.6656545
Ġ" 1.7068046
I 1.543499
Ġcan 2.7472656
't 0.28299668
Ġstop 5.1820145
Ġyou 1.0389776
," 2.0408435
ĠI 0.046751194
Ġfinally 3.694543
Ġsaid 0.37384388
. 0.3577264
Ġ" 0.26903474
But 1.9595014
ĠI 0.5951635
Ġcan 0.32442507
Ġask 5.1795588
Ġyou 0.80548114
Ġto 0.8774828
Ġrest 6.9891624
." 2.2072346
ĠI 1.9114022
Ġcould 4.7690825
Ġhear 1.8796918
Ġher 2.8927863
Ġbroken 9.904927
Ġsmile 4.8801646
, 2.295223
Ġeven 3.826166
Ġthrough 1.1664739
Ġmy 2.2796056
Ġsealed 6.9533477
Ġeyel 2.5876641
ids 0.029355593
. 0.09386268
Ġ" 0.7304742
Until 7.072617
Ġthe 2.216968
Ġday 2.6593451
Ġyou 1.1603717
're 1.8130933
Ġstrong 3.7197962
Ġenough 0.061719894
Ġto 0.21308541
Ġstand 3.2812428
Ġup 0.32782465
Ġand 2.8964264
Ġstop 4.6918163
Ġme 3.5678258
Ġyourself 9.345497
, 1.9781266
Ġthere 4.3562956
Ġwon 3.6056895
't 0.0011575487
Ġbe 0.038153704
Ġany 1.9459754
Ġrest 2.6835773
Ġfor 0.5036443
Ġme 1.4272997
." 0.8631243
ĠLuc 2.2635381
et 0.0048076026
's 2.309527
Ġfootsteps 6.1092772
Ġfaded 1.653214
Ġinto 2.464631
Ġthe 0.09576524
Ġdistance 1.4614545
Ġas 1.9438275
Ġmy 5.895466
Ġweakened 7.7231603
Ġbody 1.4823631
Ġslumped 2.4700406
Ġover 2.5899858
. 1.6887814
ĠTorn 12.015586
Ġby 2.997713
Ġsickness 7.9482307
Ġand 0.60704625
Ġsurgery 9.364581
Ġand 1.9510137
Ġsorrow 6.3789825
, 0.52509314
ĠI 0.3995206
Ġfell 3.5419693
Ġinto 1.103729
Ġa 0.69962656
Ġsl 4.7533417
umber 0.013127194
Ġdark 8.830881
Ġand 1.0735979
Ġweary 6.5807242
. 0.51151145
ĠA 4.150178
. 4.4569993
N 2.7028694
. 0.9206227
ĠThis 2.8178668
Ġstory 2.2876368
Ġis 0.81917906
Ġpart 4.7403183
Ġof 0.21636073
ĠSoul 8.289886
mage 0.25282922
, 1.635827
Ġa 1.0480489
Ġserial 7.2827783
Ġwritten 3.9610584
Ġin 2.8512938
Ġresponse 3.4635727
Ġto 0.0039952537
Ġwriting 8.554714
Ġprompts 2.4205794
. 1.9362664
ĠCheck 3.6067617
Ġout 0.6593506
Ġ[ 8.348993
this 5.8186927
Ġpost 3.9290726
]( 0.79608536
https 1.4076505
:// 0.0023767743
www 1.2378322
. 0.0032314016
reddit 1.1103506
. 0.00070603896
com 0.0010325994
/ 0.002311832
r 0.09238912
/ 0.0027966448
bub 9.409553
ble 0.3362354
writers 10.5037
/ 0.057565026
comments 0.060953494
/ 0.0018712055
ux 11.763469
m 4.0597405
we 6.9077077
4 3.1129925
/ 0.05030438
s 2.2339869
oul 0.22481221
mage 0.017689161
_ 0.07720371
master 7.840295
post 6.118835
/? 3.1601567
sort 2.6633148
= 0.0589266
new 1.0276858
) 0.7903407
Ġfor 0.66454554
Ġthe 1.919216
Ġrest 1.9969484
Ġof 0.12347479
Ġthe 0.17154954
Ġstory 1.4961132
, 2.2987475
Ġor 2.2034888
Ġr 10.180037
/ 0.39223742
bub 0.25681794
ble 0.04163945
writers 0.32830608
Ġfor 0.5752018
Ġmore 2.0447154
Ġthings 7.8499084
Ġby 5.882002
Ġme 2.3631144
! 1.4824132
