Great 7.3555236
ness 6.4449964
, 3.482555
Ġpl 9.602473
ucked 4.5867314
Ġfrom 0.83042324
Ġthe 0.7197888
Ġsands 5.644954
Ġof 0.23108
Ġtime 0.43266192
Ġto 5.16597
Ġbecome 2.6917055
Ġthe 1.4979599
Ġglass 9.339377
Ġthat 3.211563
Ġholds 3.7344239
Ġthe 1.3846513
Ġcaus 13.644611
ality 0.16065556
Ġtogether 4.5065827
. 0.91037625
ĠPicture 9.757579
Ġit 3.4844
, 1.6575457
Ġfarming 14.3618145
Ġcommunities 6.657674
Ġthroughout 6.3549976
Ġthe 0.37962925
Ġland 4.1345124
Ġbuying 10.595909
Ġtheir 3.4128275
Ġtime 7.5915723
, 2.0640414
Ġteaching 8.662086
Ġtheir 0.7913407
Ġyoung 3.9666774
, 0.9934634
Ġand 1.9678208
Ġpraying 5.5940857
Ġto 2.1108644
Ġthe 1.5438482
Ġlords 7.274816
Ġabove 2.6145735
. 2.0235424
ĠPower 7.2826686
, 1.267561
Ġswift 9.649206
ness 2.8952034
, 0.3726357
Ġknowledge 5.1139
, 0.38008898
Ġand 1.5305668
Ġwisdom 3.6265118
Ġpulse 13.499007
Ġthrough 0.5274801
Ġa 4.449026
Ġkingdom 7.600032
Ġfaster 10.867592
Ġthan 0.053496778
Ġthe 1.2021601
Ġblood 4.7110434
Ġthat 3.072439
Ġany 11.212245
Ġoath 11.080875
breaker 5.872386
Ġor 4.20625
Ġcursed 7.8715706
Ġwizard 6.4801555
Ġcould 1.6798679
Ġspill 7.738984
. 0.50522107
ĠI 4.8217864
… 7.388925
Ġwasn 9.113934
bytes:\xe2\x80 0.3293079
bytes:\x99 0.00010128584
t 0.00030773747
Ġany 8.059157
Ġof 1.0886492
Ġthat 1.2100924
. 0.6598834
ĠI 0.9559208
Ġwas 0.72493064
Ġa 1.6227232
Ġp 6.289118
orter 4.2534842
. 1.2244688
ĠI 1.7095678
Ġcarried 3.7217727
Ġthings 3.5177896
Ġfrom 3.749385
Ġone 1.7443901
Ġplace 0.8826098
Ġto 0.034374263
Ġanother 0.23260552
Ġand 3.0143247
Ġusually 7.222562
Ġhad 3.3061128
Ġto 1.8111129
Ġhave 4.7793183
Ġwhoever 11.694217
Ġit 3.273052
Ġwas 0.0458101
Ġgiving 6.3790407
Ġme 0.33641145
Ġa 1.1223549
Ġtask 6.212301
Ġto 1.7945179
Ġwrite 8.4923725
Ġit 2.2291634
Ġdown 0.4175165
. 0.86331105
ĠI 1.3507863
Ġlearned 5.685226
Ġlater 6.536685
Ġto 3.8066936
Ġwrite 3.3122861
Ġit 3.04568
Ġon 2.6966715
Ġme 8.371601
Ġbut 6.1993246
Ġeven 4.6814017
Ġwhen 4.356554
ĠI 0.295836
Ġlost 7.2123384
Ġthat 2.6395924
Ġlittle 4.8030987
Ġslip 6.163353
Ġof 0.18320414
Ġlinen 9.908204
, 1.5970988
ĠI 0.71890205
Ġloved 6.8963404
Ġwandering 10.884172
Ġaround 1.9329756
Ġto 5.4758005
Ġfind 1.6551484
Ġmy 2.8699756
Ġstop 9.945579
. 0.7896664
ĠWell 7.240925
, 0.30091688
ĠI 1.4443194
Ġused 5.3676825
Ġto 0.057256848
Ġlove 2.5271723
Ġwandering 3.4016366
. 2.2917671
ĠThat 4.8788877
Ġpassion 9.263602
Ġfilled 6.9875946
Ġmy 1.0390838
Ġsoul 1.7250165
Ġwith 3.6955595
Ġnew 5.2103624
Ġplaces 5.3035855
, 1.8225665
Ġsmells 6.885544
, 0.1408001
Ġand 0.8498914
Ġexperiences 4.3482795
. 0.68988854
ĠAs 5.1975436
Ġa 2.0836477
Ġyouth 5.0894637
, 0.6002801
ĠI 0.33975434
Ġwas 1.8687984
Ġforever 6.100301
Ġfilling 7.851738
Ġa 3.2931511
Ġcup 4.3003445
Ġthat 3.2268188
Ġseemed 5.2659383
Ġto 0.6292101
Ġleak 7.186097
Ġfor 4.5851436
Ġas 6.05297
Ġnew 10.665066
Ġexperiences 5.0757675
Ġwent 5.8267303
Ġin 3.9888842
Ġthe 3.324002
Ġold 5.8453655
Ġones 3.73133
Ġseemed 5.9644384
Ġto 0.49452648
Ġvanish 4.221567
. 0.71083355
ĠThat 3.698971
bytes:\xe2\x80 2.2729723
bytes:\x99 0.00018820119
s 0.0025081057
Ġwhen 1.8246161
ĠI 0.32804516
Ġfound 3.1113863
Ġmy 1.2283831
Ġlord 7.700431
. 0.6457164
ĠHe 1.9718679
eeee 16.240278
e 1.4987457
…. 4.8282003
err 9.945565
r 1.3467218
, 2.037031
Ġthey 8.043353
. 6.6965337
ĠThey 3.9571602
? 6.4331717
ĠThey 3.0018008
Ġare 3.6143465
Ġmost 7.334324
Ġmerc 7.934105
iful 0.08407859
Ġand 2.5928452
Ġmore 6.03263
Ġthan 0.8592595
Ġgenerous 4.4594717
Ġwith 2.5998259
Ġtheir 0.94735825
Ġgifts 1.7482321
. 0.6167688
ĠSad 10.05041
Ġto 1.8916944
Ġsay 0.13127324
Ġthat 2.7499807
Ġthere 3.9568455
Ġare 1.1119075
Ġspecific 9.530023
Ġrequirements 5.9039516
Ġthat 1.979185
Ġcome 3.6425867
Ġwith 0.28550518
Ġthose 3.787678
Ġgifts 0.3199183
Ġso 4.6928473
ĠI 1.3192331
Ġam 3.0037024
Ġnot 1.5737654
Ġable 3.1936948
Ġto 0.012442577
Ġuse 4.45
Ġall 3.6167464
Ġof 0.32996008
Ġthem 0.32923168
Ġas 4.266929
ĠI 0.88752633
Ġprobably 7.308227
Ġshould 1.2283651
. 0.62299585
ĠThat 3.6783326
bytes:\xe2\x80 1.8174231
bytes:\x99 0.0003245515
s 0.0062160003
Ġfine 3.8039072
. 1.1866211
ĠI 0.7123835
Ġhad 4.926113
Ġcome 6.3598113
Ġto 0.43093836
Ġterms 3.8724036
Ġwith 0.059317082
Ġthat 1.1150866
Ġuntil 7.410911
ĠI 1.34168
Ġfound 2.3669412
Ġa 2.6381762
Ġway 3.4155557
Ġbetter 8.611247
Ġjob 6.156224
Ġthan 2.5791898
Ġp 4.134816
orter 0.05625292
. 0.60697883
ĠAdventure 9.497312
r 5.0700517
. 0.72226393
ĠSe 8.572661
emed 4.332365
Ġmysterious 10.658021
Ġand 1.7079796
Ġpromised 8.1020355
Ġlots 6.394951
Ġof 0.15912062
Ġwandering 9.080366
, 2.6417453
Ġwhich 3.7242174
Ġin 4.320491
Ġmy 1.8278697
Ġmind 2.5611362
Ġwas 1.5351546
Ġfantastic 8.24554
. 0.3710301
ĠHowever 4.818003
, 0.1292622
Ġit 2.630282
Ġis 3.3365
Ġhard 4.3276544
Ġto 0.2091851
Ġjoin 8.124052
Ġa 1.0935302
Ġgroup 2.175842
Ġof 0.84029436
Ġpeople 1.1679374
Ġthat 1.5546324
ĠI 3.847638
Ġhave 2.583532
Ġdescribed 10.421066
Ġabove 3.8068268
. 1.006985
ĠThe 3.2632182
Ġsort 8.035605
Ġof 0.3375865
Ġwandering 4.98131
Ġbatch 15.456797
Ġof 1.7415371
Ġforever 12.218518
Ġgood 6.992417
, 4.5825386
Ġborn 9.543067
Ġand 2.9042702
Ġbred 0.81001526
, 2.40946
Ġtake 8.807673
Ġon 2.576396
Ġany 4.48914
Ġchallenge 4.906949
Ġorphans 15.93787
. 3.6856735
ĠI 1.6915499
bytes:\xe2\x80 2.8166494
bytes:\x99 0.00035025176
m 0.5455687
Ġstill 4.070443
Ġnot 1.8200206
Ġsure 0.5974093
Ġif 1.5089858
Ġthere 4.058497
Ġwas 2.6101277
Ġsomething 3.5343502
Ġthere 5.344244
. 1.9130727
ĠAre 7.4130025
Ġall 4.1899886
Ġof 1.6271408
Ġthem 1.4863881
Ġsupposed 6.034781
Ġto 0.0074654254
Ġbe 0.4045432
Ġorphans 2.9785602
Ġor 2.3708727
Ġwas 3.7251413
Ġthere 1.9600853
Ġsome 1.9375635
Ġsort 2.2973883
Ġof 0.013597459
Ġcurse 5.283265
Ġto 3.287609
Ġthat 3.1544292
? 2.2982647
ĠMy 4.600622
Ġparents 4.600609
Ġare 2.6909845
Ġalive 5.0283723
. 2.9448166
ĠThey 2.0411973
Ġare 1.5140035
Ġjust 4.926591
Ġdisappointed 8.360051
Ġbut 5.285666
ĠI 1.809918
Ġdo 4.0269737
Ġsend 9.724086
Ġletters 4.50624
Ġand 2.3114767
Ġvisit 4.3292823
Ġon 5.3503203
Ġthe 2.9097745
Ġhigh 8.696108
Ġholidays 3.5521436
. 0.6450764
ĠAnyway 6.6177206
. 3.4901934
ĠWhere 6.7581277
Ġwas 2.889541
ĠI 0.10489048
? 0.1887465
ĠI 2.3111775
Ġshouldn 7.663704
bytes:\xe2\x80 0.006269921
bytes:\x99 0.00014671094
t 0.00025968134
Ġask 5.00391
Ġthat 2.655954
Ġquestion 2.206799
Ġbecause 2.4222887
Ġin 5.067117
Ġthe 1.8290849
Ġlast 3.5350654
Ġfour 4.5886087
Ġyears 0.5621859
ĠI 1.1143193
Ġdon 4.584057
bytes:\xe2\x80 0.0031004518
bytes:\x99 0.00010128584
t 0.00021371653
Ġthink 2.6329517
ĠI 0.45256546
Ġhave 1.2415744
Ġever 2.3066828
Ġknown 6.0608144
Ġwhere 2.802783
ĠI 0.50494146
Ġwas 0.9650529
. 0.7744941
ĠI 1.071586
Ġdo 3.61457
Ġremember 2.3605795
Ġthe 2.4405186
Ġcreatures 9.515647
Ġthough 5.392159
. 0.35621434
ĠThose 3.7196298
Ġare 3.5616996
Ġse 9.834599
ared 4.3130336
Ġinto 1.3406643
Ġmy 0.23965944
Ġmind 1.6096565
Ġas 3.34534
Ġan 4.8625402
Ġendless 5.10105
Ġliving 8.051509
Ġnightmare 1.7660507
Ġthat 2.5172062
Ġeven 6.4090333
Ġmy 2.5982141
Ġlord 4.3588676
Ġcannot 3.4602172
Ġsave 4.909332
Ġme 2.4005919
Ġfrom 0.067835316
. 0.1057524
ĠI 1.3371704
Ġremember 3.1046548
Ġthe 1.6866575
Ġmines 10.894613
Ġthe 5.4212413
Ġmost 4.1925855
Ġvividly 6.337846
. 0.55401295
ĠThe 1.7165855
Ġwaking 10.309532
Ġnightmare 1.6496524
Ġof 1.2979227
Ġflame 9.366598
Ġand 0.86116916
Ġdeath 3.2212026
Ġthat 2.0594857
Ġassaulted 7.174002
Ġus 4.690295
Ġfor 4.705565
Ġhours 1.7234664
Ġas 3.0211527
Ġwe 0.87103
Ġran 4.7810493
Ġout 3.8799672
Ġof 0.5189825
Ġfood 1.7025357
Ġand 0.6695776
Ġthen 5.03503
Ġthe 2.2731562
Ġsnacks 13.891116
Ġand 2.5672474
Ġthen 2.3391185
Ġthe 0.53678834
Ġsecret 8.862106
Ġstaff 8.337011
Ġof 2.7935693
Ġstress 11.104489
Ġfood 8.148148
ĠI 4.5259886
Ġkept 4.7090116
Ġin 2.1271863
Ġmy 0.972141
Ġbag 2.892543
. 0.7573
ĠWorst 8.460432
Ġof 0.34051582
Ġall 0.01324871
Ġwere 3.703759
Ġthe 0.1408147
Ġwords 5.2881913
Ġspoken 2.658945
. 2.771154
bytes:Ġ\xe2\x80 3.147844
bytes:\x9c 0.07088623
Who 5.5730042
Ġlet 5.83506
Ġthe 1.8806535
Ġsorcerer 10.052625
Ġget 4.635133
Ġat 4.516774
Ġthe 2.435367
Ġr 7.182064
ations 3.113211
? 0.6022676
bytes:\xe2\x80 0.24854334
bytes:\x9d 0.0058556674
ĠI 2.2907188
Ġheard 3.2147849
Ġscreamed 8.777243
Ġas 2.7123914
Ġfire 7.482504
Ġr 3.9445665
ipp 1.4970158
led 0.018921306
Ġaround 2.5120637
Ġus 2.0282972
. 0.84768987
bytes:Ġ\xe2\x80 1.5177367
bytes:\x9c 0.004457175
That 4.057788
bytes:\xe2\x80 1.0575752
bytes:\x99 0.004868576
s 0.01046357
Ġjust 4.1613193
Ġhis 5.216503
, 6.180285
bytes:\xe2\x80 0.7570985
bytes:\x9d 0.0021027527
Ġsomeone 3.5971212
Ġcalled 4.441787
Ġback 2.5648484
, 2.4127092
bytes:Ġ\xe2\x80 0.50180393
bytes:\x9c 0.0020984507
I 2.7829385
Ġhave 4.1513453
Ġours 11.74934
. 0.9333747
bytes:\xe2\x80 0.3019783
bytes:\x9d 0.00089639076
ĠSee 9.321084
, 0.82218915
Ġthey 3.4850445
Ġwere 1.801213
Ġholding 6.880839
Ġout 2.7981038
Ġon 1.1136849
Ġme 0.5523485
! 3.6550784
ĠI 1.3757017
Ġthought 4.2627363
ĠI 2.5074658
Ġwas 0.8296511
Ġgoing 2.2156572
Ġto 0.06855677
Ġstarve 5.869133
Ġbut 3.6872547
Ġthey 2.3056724
Ġstill 4.608677
Ġhad 1.6970062
Ġfood 2.0065744
. 0.9112092
ĠAn 7.466497
Ġentire 3.291755
Ġpack 3.852696
Ġof 0.37036678
Ġfood 3.3113117
Ġthat 2.9044788
Ġcould 3.7847314
Ġqu 9.786613
ell 2.1054504
Ġthe 1.6433166
Ġhurricane 9.74237
Ġin 3.4660053
Ġmy 0.8055388
Ġstomach 0.9956539
Ġas 4.6627665
Ġdeath 7.850542
Ġand 2.0607247
Ġchaos 4.101333
Ġwhipped 7.1186166
Ġaround 1.1501273
Ġus 0.6948203
. 0.38601038
ĠThe 2.6341674
Ġargument 10.750983
Ġthat 3.2126951
Ġnight 4.5431128
Ġwas 1.1684555
Ġnot 3.2484956
Ġpleasant 4.421452
Ġand 2.7688282
ĠI 1.0752872
Ġended 4.5951304
Ġup 0.054228723
Ġtrying 5.257988
Ġred 12.613557
Ġdragon 6.450805
Ġfor 4.293332
Ġthe 0.856882
Ġfirst 0.50092536
Ġtime 0.05216397
. 1.198232
ĠNot 4.019758
Ġbad 4.93752
, 1.508863
Ġreally 5.1564393
Ġche 12.098065
wy 1.6220878
Ġthough 4.8163314
Ġand 3.4193487
Ġhad 4.495126
Ġthis 7.054524
Ġun 7.1817265
god 2.6782992
ly 0.005230652
Ġgam 12.284595
y 2.8774977
Ġtaste 1.1666397
Ġto 1.0869335
Ġit 0.090346776
. 0.393696
ĠProbably 7.2583404
Ġwork 11.043097
Ġin 3.0479932
Ġa 1.835404
Ġstew 4.725061
Ġif 3.2567809
Ġyou 1.1772949
Ġdouble 10.24213
- 3.2514853
cooked 5.353413
Ġit 0.8152277
. 0.5419928
ĠAnyway 3.7051919
, 0.5191673
Ġsomething 6.5693836
Ġthat 3.6015193
ĠI 2.1990335
Ġshould 4.5922093
Ġpoint 4.301481
Ġout 0.0036717895
Ġthat 3.0340424
Ġmy 3.1598742
Ġparty 7.82376
Ġdoesn 4.381155
bytes:\xe2\x80 0.0016757128
bytes:\x99 0.00013931624
t 0.00023738743
Ġknow 2.8611155
Ġabout 1.0534008
Ġme 5.7164984
, 2.6532433
ĠI 2.4112208
Ġam 1.6401733
Ġnot 1.8673092
Ġa 1.1649712
Ġsorcerer 3.9614897
. 0.49485296
ĠI 0.82473445
Ġam 0.8875298
Ġactually 5.144017
Ġa 0.55642486
Ġwar 5.818535
lock 0.08286312
. 0.7426489
ĠDon 6.7780995
bytes:\xe2\x80 0.0139887575
bytes:\x99 0.00011750104
t 0.001298627
Ġask 1.053991
Ġme 1.3982762
bytes:Ġ\xe2\x80 8.363732
bytes:\x98 1.5123894
of 9.599303
Ġwhom 4.704943
bytes:\xe2\x80 0.3352486
bytes:\x99 0.01085455
Ġthough 3.160321
Ġas 4.362909
Ġmy 3.6739972
Ġlord 0.98181576
Ġis 2.0258338
Ġmysterious 8.410682
Ġand 1.0275428
Ġonly 4.7504725
Ġtold 3.9240828
Ġme 0.1539978
Ġtheir 6.457033
Ġname 1.0976772
Ġonce 3.1070452
. 0.66609275
ĠI 1.4898449
Ġdo 3.7999005
Ġhave 2.0490746
Ġa 0.87431484
Ġmark 7.409095
. 2.7554357
ĠIt 1.9407142
Ġhurt 8.899975
Ġa 2.6739428
Ġlot 1.5049729
Ġto 4.0738564
Ġget 2.9698372
Ġit 0.6250868
Ġbut 1.2282349
ĠI 1.184192
Ġwas 2.9684849
Ġproactive 11.980094
. 1.9552506
ĠI 1.0119581
Ġthought 5.3748927
, 4.734767
Ġlong 8.149864
Ġcomplicated 10.075935
Ġname 6.9595995
Ġthat 2.7060125
ĠI 1.6255646
Ġhad 2.5476952
Ġtrouble 6.0912514
Ġpron 1.1264219
ouncing 0.027867254
Ġat 4.9610753
Ġthe 1.6755142
Ġmoment 3.188477
, 0.86321396
Ġbetter 7.4941854
Ġget 3.5777657
Ġthat 3.5737123
Ġwritten 6.4411817
Ġdown 0.27294597
. 0.7058857
ĠNow 5.162529
Ġwhat 4.419339
ĠI 2.4373467
Ġdidn 4.956057
bytes:\xe2\x80 0.0021225843
bytes:\x99 0.00010259808
t 0.00023786427
Ġexpect 3.537442
Ġwas 0.3889025
Ġthe 2.226611
Ġmark 5.10835
Ġto 1.0797049
Ġripple 9.620593
Ġand 2.5140188
Ġchange 3.381309
Ġslightly 7.4442906
Ġover 3.2738647
Ġtime 0.72825503
. 0.31622744
ĠIt 1.8055367
Ġis 2.72175
Ġalso 5.727863
Ġa 1.9517562
Ġvery 3.6591434
Ġclear 5.8406973
Ġsymbol 3.9392745
Ġand 3.1138637
Ġnot 3.8355777
Ġa 1.9930187
Ġname 5.6737037
Ġthat 3.1860704
ĠI 0.72214836
Ġcan 1.7919892
Ġtry 7.692425
Ġand 1.5553073
Ġpronounce 3.5035045
. 0.8291744
ĠThat 3.326497
Ġwas 2.5483582
Ġjust 4.366287
Ġan 3.5133724
Ġhour 4.588453
Ġof 3.795393
Ġpain 4.838388
Ġfor 2.2733133
Ġno 5.5339155
Ġreason 0.5337104
Ġother 3.6490998
Ġthan 0.029705701
Ġto 2.5819297
Ġget 2.581351
Ġsomething 3.4967923
ĠI 4.0719104
Ġnow 7.089021
Ġhave 1.5409212
Ġto 1.8519341
Ġhide 5.9875407
. 0.4496809
ĠTo 5.8440223
Ġmy 3.0952995
Ġparty 8.852604
, 1.075612
ĠI 1.1086885
Ġam 0.73826987
Ġa 1.278316
Ġsorcerer 3.5137844
Ġwith 3.9880087
Ġthe 2.1527052
Ġblood 3.7937708
Ġof 0.116299674
Ġa 1.3941131
Ġwhite 6.1464267
Ġdragon 1.0087296
. 1.1169393
ĠSe 7.387756
emed 1.7077227
Ġsmart 6.854686
, 2.625028
Ġthey 4.5726476
Ġare 3.7000277
Ġsort 7.0240526
Ġof 0.053888224
Ġevil 6.4858
Ġand 2.3641763
ĠI 2.059699
Ġam 1.5816045
Ġnow 6.0188513
Ġsort 5.448463
Ġof 0.005594777
Ġevil 1.4329637
. 0.67129916
ĠI 1.3695031
Ġtry 6.099133
Ġnot 1.5964928
Ġto 0.012153235
Ġbe 2.7638183
Ġbut 3.3483622
Ġsuch 9.249716
Ġis 0.7740732
Ġlife 1.8573151
. 0.30907428
ĠWhite 8.910868
Ġdragons 1.1118335
Ġaren 4.2440896
bytes:\xe2\x80 0.0042149043
bytes:\x99 0.00011988616
t 0.00015696288
Ġthat 3.4321196
Ġbright 3.2124264
Ġand 1.5916555
ĠI 1.8937048
Ġforget 6.8533273
Ġa 3.822931
Ġlot 0.12144078
Ġof 0.42111063
Ġthings 0.95691866
Ġso 4.2251096
ĠI 0.77558583
Ġcome 6.498736
Ġoff 1.9685037
Ġas 0.69905376
Ġbelie 12.338978
v 0.066459194
ably 0.044123385
Ġunint 8.334932
elligent 0.018843377
. 0.4802107
ĠI 1.3237575
Ġam 1.7166375
Ġnot 2.2977295
. 3.0108793
ĠI 0.8300725
Ġknow 3.7167861
Ġmany 5.31757
Ġthings 0.4158391
. 1.4690205
ĠI 0.78909343
Ġcould 5.7218747
Ġfill 5.274237
Ġat 6.8577313
Ġleast 0.036826953
Ġa 1.3658738
Ġsmall 4.0793633
Ġstack 7.149287
Ġof 0.1538556
Ġbooks 0.8808286
Ġon 3.2669482
Ġall 4.144362
Ġthe 1.803874
Ġthings 1.1154118
ĠI 0.5924581
Ġknow 0.56461984
. 0.82070166
ĠWorst 9.839063
Ġcase 4.882339
, 2.0387473
ĠI 0.56487626
Ġknow 3.7556558
Ġmore 2.444553
Ġthan 0.54093516
Ġthe 2.209302
Ġbarb 9.948914
arian 0.017511904
Ġwith 4.8000307
Ġus 8.51166
. 1.1118236
ĠI 1.4112035
Ġhad 5.4171557
Ġa 1.9151639
Ġthird 8.377629
Ġpoint 7.0747952
. 3.3024669
ĠWhat 4.313652
Ġwas 2.9230208
Ġthe 2.370165
Ġthird 3.1725261
Ġpoint 0.63082135
? 0.35778877
ĠOr 6.436739
Ġis 2.8969834
Ġthis 3.0974004
Ġjust 3.114458
Ġusually 11.227736
Ġwant 11.636029
Ġto 0.87608415
Ġgive 4.787317
Ġthree 7.605712
Ġpoints 0.71173817
? 1.7362034
ĠNo 4.319387
Ġwait 7.2104216
, 0.6931385
Ġit 2.3703473
bytes:\xe2\x80 0.962573
bytes:\x99 0.00038733694
s 0.0040720953
ĠI 7.5825996
Ġuse 7.871341
Ġcold 10.078461
Ġspells 4.4697356
Ġthat 3.8439212
Ġmy 5.9061275
Ġlie 9.164638
ge 0.16475913
Ġhas 3.0232534
Ġtaught 3.183455
Ġme 0.043668117
. 1.0108103
ĠH 6.093325
aha 1.7350096
, 0.9699539
ĠI 1.5798417
Ġremembered 6.5992923
. 1.8572491
ĠAnyway 6.2909203
, 0.2866609
Ġafter 5.6451297
Ġthe 2.1970863
Ġmines 7.6067314
Ġand 2.2629888
Ġgetting 6.31895
Ġour 4.697129
Ġrewards 8.228575
Ġand 2.3376775
Ġa 3.6285574
Ġnight 4.9737244
Ġjust 7.642725
Ġeating 6.337026
Ġactual 9.968612
Ġfood 0.2534041
Ġinstead 4.452079
Ġof 0.014812709
Ġstale 7.231246
Ġbread 2.5171745
Ġand 0.9852321
Ġhard 5.863384
Ġmeat 5.7695975
Ġwe 3.9421499
Ġfinally 3.683466
Ġmade 2.4516115
Ġour 1.1997986
Ġway 0.105980806
Ġto 0.8746308
Ġa 2.6488447
Ġplace 2.2133675
Ġthat 1.4071742
ĠI 1.5580076
Ġwanted 4.8989925
Ġto 0.22253565
Ġgo 1.9810117
, 3.9101667
ĠCandle 11.59238
keep 0.45565006
ĠLibrary 9.743942
. 0.12125384
ĠI 1.4879189
Ġhad 2.0744045
Ġbooks 9.046349
, 2.860112
Ġnot 3.6401894
Ġones 6.285662
Ġthat 0.95519054
ĠI 0.6628517
Ġhad 2.0682867
Ġmade 5.1284876
, 2.2425268
Ġthat 3.6024032
Ġwere 2.361192
Ġrare 6.2491055
Ġenough 2.6867342
Ġto 0.651794
Ġenter 7.197266
Ġthe 1.771232
Ġfortress 7.34796
Ġand 2.210173
Ġimportant 8.990268
Ġenough 0.08101387
Ġthat 1.9904002
ĠI 0.88630885
Ġkept 5.827687
Ġa 2.190771
Ġclose 4.4833264
Ġeye 0.696864
Ġon 0.12497346
Ġthem 0.563303
. 0.35977817
ĠWe 3.9420776
Ġtravelled 7.1043673
Ġon 4.282062
Ġhorse 3.4035113
back 0.15478759
Ġfor 1.9679408
Ġdays 4.0720167
. 2.0034275
ĠDays 5.620415
! 5.302024
ĠI 1.2993171
Ġcould 3.838485
Ġnot 1.8156164
Ġstop 3.5435593
Ġthinking 1.7635297
Ġabout 0.3642778
Ġhorse 6.2014904
Ġstew 13.230662
Ġthe 5.6207843
Ġentire 2.2005088
Ġtime 0.27366874
. 0.54431504
ĠWe 2.6277575
Ġpassed 3.2923377
Ġthe 2.324298
Ġentrance 5.623559
, 4.394679
Ġb 7.169861
ribed 4.470037
/ 9.350524
paid 5.147602
Ġthe 1.8632363
Ġguards 0.4645251
Ġor 7.541976
Ġwhatever 1.4324319
Ġgood 8.053005
Ġwords 6.9175925
Ġthe 2.511792
Ġparty 4.888467
Ġused 4.3561115
Ġto 0.98163414
Ġjustify 4.762298
Ġit 2.7570617
, 0.9966405
Ġand 0.42865494
ĠI 3.7972722
Ġfinally 3.608339
Ġmade 2.43978
Ġmy 1.277122
Ġway 0.19134748
Ġto 1.3935906
Ġthe 0.2652178
Ġlibrary 0.7938121
. 0.18843594
ĠI 1.5425837
Ġwas 1.8878108
Ġgoing 3.8899255
Ġto 0.11799269
Ġunlock 8.213079
Ġmy 3.539543
Ġtrue 6.380322
Ġpower 2.3801677
. 2.15892
ĠMy 3.4929566
Ġactual 7.257791
Ġpower 0.32260424
. 0.65130264
ĠAll 4.787852
ĠI 1.4699206
Ġneeded 2.0452416
Ġwas 0.49726608
Ġmy 3.5555236
Ġlords 7.9624786
Ġtrue 6.760231
Ġname 2.8789372
, 2.2932386
Ġwhich 2.3226655
ĠI 1.1442232
Ġwill 4.428632
Ġcarve 10.731547
Ġinto 1.1507182
Ġmy 1.3295317
Ġskin 3.069755
Ġthis 5.517767
Ġtime 3.0028806
. 0.5315225
ĠSelf 10.315329
- 0.7882264
awareness 2.567283
Ġis 2.12477
Ġthe 2.4152513
Ġgreatest 4.1718664
Ġpower 1.4125278
Ġof 2.2437537
Ġthem 3.7242575
Ġall 0.005291531
. 0.36024737
ĠWell 4.480647
, 0.27476218
Ġsecond 6.870588
Ġgreatest 2.3856044
, 2.3584511
Ġfireball 15.202124
Ġwas 4.1085105
Ġpretty 4.1858063
Ġcool 2.7769024
Ġand 2.7344255
Ġit 3.8296006
Ġdid 3.5100071
Ġso 5.8181214
Ġmuch 1.4314644
Ġdamage 1.0581828
Ġthat 1.9930277
ĠI 1.32354
Ġgot 4.0279927
Ġyelled 6.641833
Ġat 0.07047952
Ġlong 8.146524
Ġenough 0.4805708
Ġthat 2.1862328
ĠI 0.44417143
Ġstill 6.104777
Ġremember 2.816238
Ġit 1.4107329
. 0.38098162
ĠI 1.3944231
Ġstarted 4.984185
Ġwith 3.500097
Ġdragon 7.537492
Ġbooks 7.3597755
Ġjust 6.359756
Ġto 0.9716613
Ġkeep 3.4227848
Ġup 2.4579315
Ġthe 2.4677098
Ġr 5.47287
use 1.2821978
Ġbut 2.2808943
Ġeventually 3.8976054
Ġmade 3.3072197
Ġmy 0.79432887
Ġway 0.02032485
Ġto 0.22126149
Ġthe 0.9714592
Ġdark 6.255777
Ġand 3.9026961
Ġmysterious 4.4570284
Ġsection 3.7676394
. 0.6797132
ĠCob 11.841639
we 0.88432115
bs 0.011287582
Ġand 1.8177178
Ġlayers 8.067451
Ġof 0.2007231
Ġdust 1.9408048
Ġcovered 1.7288394
Ġthese 6.735008
Ġancient 5.004618
Ġbooks 0.7917542
. 0.9491854
ĠOpening 8.887505
Ġthem 1.3482467
ĠI 3.129493
Ġsaw 2.6650116
Ġpage 7.6810455
Ġafter 0.085368626
Ġpage 0.07361974
Ġof 0.37232473
Ġsymbols 5.7199726
Ġand 1.0476207
Ġstar 10.059236
Ġcharts 2.3156765
Ġthe 7.1042614
Ġlife 7.2212214
's 8.023604
Ġwork 3.0015454
Ġof 0.053955343
Ġmany 3.6869085
Ġmen 3.757029
Ġthat 4.3414335
Ġhad 2.2523654
Ġbefore 7.8549023
Ġme 2.325913
. 0.33054003
ĠI 1.4398139
Ġknew 3.6838934
ĠI 2.862192
Ġwas 1.439663
Ġin 2.1375728
Ġthe 0.7506797
Ġright 0.5076584
Ġplace 0.24961855
. 0.7427911
bytes:Ġ\xe2\x80 5.3672886
bytes:\x9c 0.015935874
Why 5.237436
