The 2.598347
ĠHarvest 10.459108
ĠJake 14.018432
Ġtossed 12.698803
Ġand 4.4086614
Ġturned 0.8482025
Ġin 1.2756064
Ġhis 0.7875085
Ġbed 0.59383124
, 1.0038949
Ġunable 3.3666978
Ġto 0.005940384
Ġsleep 0.71657705
. 0.52001584
ĠHis 2.2984324
Ġmind 2.3401806
Ġwas 1.0743122
Ġracing 2.286328
Ġwith 1.750014
Ġworries 5.5545397
Ġand 1.8006971
Ġanx 5.4327016
ieties 0.0017423447
Ġabout 2.48038
Ġhis 1.7523626
Ġjob 3.6244853
, 1.702854
Ġhis 1.1205279
Ġrelationships 5.8363028
, 0.4229148
Ġhis 0.85958034
Ġun 8.260445
ful 1.4416003
f 2.811028
illing 0.011658803
Ġlife 2.3991654
. 0.7428876
ĠAs 4.5343504
Ġhis 2.888061
Ġrestless 5.6032233
Ġmind 1.38054
Ġjumped 7.042469
Ġfrom 1.1102144
Ġone 0.740526
Ġconcern 4.2521534
Ġto 0.025843652
Ġthe 0.98818725
Ġnext 0.052687827
, 0.12483589
Ġa 3.3243685
Ġstrange 3.3701518
Ġfeeling 1.3966978
Ġcrept 2.994005
Ġover 1.6465837
Ġhim 0.35742673
. 0.5324243
ĠA 3.2321074
Ġfeeling 1.2756562
Ġthat 0.834123
Ġhis 3.766641
Ġstruggles 8.90635
Ġand 2.558604
Ġsuffering 5.1686015
Ġwere 0.95513403
Ġsomehow 2.5778985
Ġbeing 2.9839976
Ġcultivated 11.761591
Ġand 2.254081
Ġfed 3.3101428
Ġupon 4.562485
Ġby 0.29563162
Ġsinister 8.624038
Ġforces 0.47746396
. 0.67933714
ĠHe 2.138767
Ġshook 5.1096563
Ġoff 4.1459184
Ġthe 0.49451426
Ġbizarre 5.9321346
Ġthought 2.285453
Ġand 0.7452773
Ġglanced 5.870916
Ġat 0.7033075
Ġthe 0.37343735
Ġclock 0.5119229
. 0.698746
Ġ3 5.117739
: 0.35524502
33 4.5809093
Ġam 1.9683491
. 0.21634637
ĠThe 2.8866024
Ġwitch 7.7812796
ing 2.2498364
Ġhour 0.108622536
. 0.68012375
ĠJake 5.3225756
Ġdidn 4.8371973
't 0.4471894
Ġactually 7.613421
Ġbelieve 2.855171
Ġin 0.41715154
Ġsuch 3.3571837
Ġsuperst 4.577427
itions 0.4955274
, 0.4905086
Ġbut 0.13398732
Ġthe 2.6450403
Ġtiming 5.68726
Ġseemed 2.8104172
Ġoddly 4.791212
Ġfitting 2.0381498
Ġfor 2.481897
Ġhis 2.3333893
Ġstrange 5.516158
Ġintuition 8.965754
. 0.38721222
ĠHis 3.3237686
Ġcat 6.675182
, 1.8454405
ĠSim 9.023644
ba 0.52433765
, 0.108220845
Ġsuddenly 5.1230516
Ġawoke 4.8417745
Ġwith 3.2922204
Ġa 0.22953412
Ġstart 2.4420178
Ġand 1.0724669
Ġleapt 3.9855213
Ġoff 2.59968
Ġthe 0.5146965
Ġbed 0.10897036
. 1.1165738
ĠThe 2.4792259
Ġhair 8.051468
Ġon 1.0071839
ĠSim 3.5923119
ba 0.003508962
's 0.009698739
Ġback 1.0056449
Ġwas 2.5505202
Ġstanding 1.2698492
Ġup 1.445361
Ġas 2.7745261
Ġhe 1.254264
Ġstared 3.5921397
Ġint 5.4056816
ently 0.00052067416
Ġout 4.833107
Ġthe 0.31630173
Ġopen 5.170904
Ġbedroom 3.4501312
Ġdoor 1.386076
Ġinto 4.444903
Ġthe 0.12828651
Ġdarkness 2.9815488
Ġof 1.7338061
Ġthe 0.31740114
Ġhallway 4.6780314
. 0.14296286
ĠA 3.8698082
Ġchill 3.6143744
Ġran 1.1181438
Ġdown 0.64903444
ĠJake 0.30908224
's 0.01162443
Ġspine 0.1219953
. 1.1859827
ĠHe 1.3581173
Ġhad 3.154672
Ġnever 2.1610987
Ġseen 1.0989891
ĠSim 1.193723
ba 0.00034548063
Ġact 4.463674
Ġthis 1.734036
Ġway 0.33866337
Ġbefore 0.45979503
. 0.32844839
ĠThe 2.131364
Ġcat 0.6965224
Ġhis 6.903861
sed 0.01097519
Ġloudly 4.570864
, 1.5572848
Ġthen 2.4340515
Ġd 4.6889133
arted 0.037471544
Ġunder 5.250605
Ġthe 0.12211402
Ġbed 0.3202327
Ġto 2.3257022
Ġhide 1.4056385
. 1.776871
ĠJake 0.8769818
Ġheard 4.6381764
Ġsoft 5.5871954
Ġwhispers 5.82204
Ġcoming 2.3618612
Ġfrom 0.05403191
Ġthe 0.533359
Ġhallway 2.6352084
. 0.8762757
ĠHe 1.3458302
Ġstrained 5.073249
Ġto 0.93488425
Ġmake 3.4621832
Ġout 0.056509007
Ġwhat 1.7279729
Ġthe 2.3862433
Ġhus 6.4290934
hed 0.041235507
Ġvoices 0.8660737
Ġwere 0.26547346
Ġsaying 0.40684742
, 0.91251487
Ġbut 0.15027279
Ġcould 2.9278498
Ġonly 0.91274
Ġcatch 3.5834072
Ġsnippets 0.81727576
. 2.496262
Ġ"... 7.775352
the 3.7409925
Ġdistress 12.835425
Ġis 3.098001
Ġreaching 6.9951997
Ġpeak 5.6606746
Ġlevels 2.404543
Ġnow 3.3176363
. 1.371326
ĠWe 2.319585
Ġmust 2.3431334
Ġharvest 9.807085
Ġsoon 4.9190626
Ġbefore 4.6636367
..." 5.6152472
Ġ"... 1.4598669
yes 5.94876
, 0.5394991
Ġthis 4.3029184
Ġone 5.1968827
Ġis 1.1241121
Ġripe 4.673196
. 1.2741301
ĠHis 6.0541024
Ġsuffering 5.2691274
Ġwill 1.6419772
Ġfeed 3.1649032
Ġus 3.0881197
Ġfor 2.4753025
..." 5.062454
Ġ"... 0.24048322
the 2.7313528
Ġothers 6.312776
Ġare 1.4149107
Ġalso 3.7256615
Ġready 3.3566136
. 1.0776006
ĠWe 2.0901997
Ġshall 4.1290064
Ġhave 3.1460843
Ġa 2.1759763
Ġfeast 1.0737578
Ġtonight 1.8136503
!" 3.1012926
ĠJake 2.7712104
Ġshook 5.3740683
Ġwith 4.9110937
Ġterror 3.1259098
. 0.73263526
ĠHe 1.1601102
Ġpulled 5.4714875
Ġthe 0.7030704
Ġcovers 0.46732032
Ġtightly 4.1631446
Ġover 1.0870742
Ġhis 0.12715685
Ġhead 0.2785862
Ġas 3.3303797
Ġif 4.1966
Ġthat 3.757153
Ġwould 0.28378636
Ġprotect 2.2881076
Ġhim 0.093039535
Ġfrom 0.35397077
Ġwhatever 1.7955496
Ġsinister 4.5513687
Ġpres 6.9460273
ences 0.07493975
Ġwere 0.6522592
Ġjust 5.7743716
Ġoutside 1.4319254
Ġhis 0.9503386
Ġdoor 1.2334541
. 0.05152107
ĠThe 1.9994338
Ġwhispers 4.7066226
Ġgrew 2.0392132
Ġlouder 0.32358545
Ġas 2.3286512
Ġthey 1.9221034
Ġapproached 2.3360617
, 2.795699
Ġunaware 10.311818
Ġthat 0.9638793
Ġhe 1.9538739
Ġcould 3.52252
Ġoverhe 7.8187594
ar 0.0009043261
Ġthem 0.61787117
. 0.29565942
Ġ" 1.815208
This 4.3108563
Ġhuman 8.736985
's 3.0542998
Ġanguish 5.4643683
Ġand 3.1892343
Ġdespair 3.6139688
Ġare 1.9298744
Ġutterly 7.044841
Ġdelicious 5.5480747
. 0.9343955
ĠHis 3.0533905
Ġtroubled 9.64494
Ġsoul 2.3996618
Ġshall 4.713462
Ġfetch 9.84509
Ġa 3.6765237
Ġhigh 5.6720047
Ġprice 0.32232764
Ġin 1.7470328
Ġthe 1.0586153
Ġabyss 7.1076746
al 4.469931
Ġmarkets 5.406567
. 2.4894247
ĠOur 4.1566644
Ġdemonic 6.68266
Ġbuyers 7.3072686
Ġwill 0.71816295
Ġbe 2.0946472
Ġwell 4.747401
Ġpleased 1.1360663
Ġwith 1.3892723
Ġtonight 6.822796
's 0.02342709
Ġharvest 2.2737188
!" 2.4624748
ĠJake 2.4359882
's 1.8119879
Ġheart 1.2261333
Ġpounded 1.6219625
Ġas 1.75215
Ġthe 1.142269
Ġimplications 8.1260195
Ġsank 2.4482722
Ġin 0.07366934
. 0.10908807
ĠHis 2.344999
Ġintuition 7.432689
Ġhad 2.567922
Ġbeen 0.811669
Ġright 0.8942581
. 1.0993607
ĠThere 3.2293954
Ġwere 1.2548957
Ġmalicious 8.125333
Ġbeings 2.4109886
Ġthat 5.1283116
Ġcultivated 8.510381
Ġhuman 2.2477305
Ġsuffering 0.25974038
Ġto 2.494976
Ġfeed 0.12403014
Ġon 0.76094353
Ġsouls 7.978177
. 0.69858027
ĠThey 2.4259207
Ġwere 1.1638905
Ġliteral 10.066567
Ġsoul 6.8202868
Ġfarmers 5.7021394
, 1.5078218
Ġharvesting 3.2624605
Ġhumanity 5.1133223
Ġto 2.8895903
Ġsell 4.5265965
Ġto 1.3607627
Ġthe 0.8030694
Ġhighest 0.7199195
Ġb 3.0695562
idd 0.00047702223
ers 0.004907208
Ġin 2.9324324
Ġsome 7.2516456
Ġunh 4.9765162
oly 0.020728953
Ġunderworld 1.9307592
Ġmarket 3.2317975
. 0.16896485
ĠThe 1.6806024
Ġwhispers 2.8996232
Ġturned 5.17079
Ġinto 1.5107617
Ġc 5.6139
ack 0.40525484
les 0.94749635
Ġof 1.8955021
Ġhideous 8.450925
Ġlaughter 0.12248429
Ġjust 9.375225
Ġoutside 2.7462502
Ġhis 1.1624032
Ġdoor 0.4849856
. 0.2887065
Ġ" 2.212893
Come 5.1083755
, 1.6683676
Ġcome 3.1135173
, 0.34716535
Ġlittle 3.8217013
Ġmor 8.621718
sel 0.13808717
! 1.6102715
ĠYour 3.655243
Ġtime 4.5127583
Ġhas 1.6502167
Ġcome 0.075644225
. 1.2348379
ĠYour 2.403018
Ġsoul 3.562044
Ġis 1.2378212
Ġripe 1.0391645
Ġfor 0.83159316
Ġthe 1.380176
Ġtaking 1.8251315
!" 1.7013737
ĠJake 2.013116
Ġleapt 4.713303
Ġout 0.82467645
Ġof 0.050035328
Ġhis 2.340234
Ġbed 0.16139379
Ġas 3.2640195
Ġhis 2.6704228
Ġdoor 4.000616
Ġflew 2.506685
Ġopen 0.019529957
Ġwith 2.802393
Ġa 0.33416352
Ġbang 2.4337447
. 0.21193542
ĠBut 6.4459267
Ġno 3.4824278
Ġone 0.8728911
Ġwas 0.6704229
Ġthere 0.24028507
. 0.30999678
ĠThe 1.8502074
Ġc 6.0006337
ack 0.34070835
les 0.5981241
Ġrose 6.312376
Ġin 2.3836622
Ġvolume 2.5446982
Ġand 1.6623201
Ġintensity 2.7251208
, 1.7369342
Ġshaking 5.94353
Ġthe 0.30505517
Ġwalls 1.8373322
Ġof 1.6782718
Ġhis 1.7516017
Ġroom 0.7791741
. 0.7141225
ĠHe 2.5262504
Ġscreamed 4.573824
Ġin 1.6795672
Ġprimal 8.592301
Ġterror 0.67570746
Ġas 1.0314614
Ġhe 1.1590145
Ġrealized 4.0316463
Ġthe 2.2698965
Ġfarmers 11.253336
Ġwere 0.5638023
Ġall 4.0269237
Ġaround 3.6235251
Ġhim 0.487892
, 1.3585596
Ġunseen 8.383273
, 1.9882671
Ġdelight 9.74267
ing 0.13295244
Ġin 0.037604596
Ġhis 0.61901695
Ġanguish 3.435539
Ġand 0.88786983
Ġpreparing 11.104332
Ġto 1.0028328
Ġclaim 7.1187744
Ġtheir 4.0435276
Ġharvest 2.601726
. 0.28434542
ĠHis 3.5831287
Ġscreams 3.1650975
Ġwere 1.541766
Ġcut 2.3848543
Ġshort 0.24602038
Ġas 0.64971954
Ġan 4.4158797
Ġinvisible 3.5987492
Ġforce 2.6492887
Ġw 6.6187468
renched 0.17712887
Ġhis 1.233553
Ġsoul 5.201271
Ġfrom 0.5554797
Ġhis 0.37611008
Ġbody 0.10866738
. 0.99314356
ĠHe 1.4798487
Ġcollapsed 3.579574
Ġlifeless 5.4436955
Ġto 2.6563704
Ġthe 0.03043461
Ġfloor 0.26795328
, 1.0931698
Ġhis 1.6292648
Ġsou 9.188078
ll 0.31702423
ess 0.0028092572
Ġcorpse 2.71796
Ġa 3.4917047
Ġtestament 3.7957823
Ġto 0.10624869
Ġhumanity 6.1265616
bytes:\xe2\x80 7.4451528
bytes:\x99 0.00027959672
s 0.0007223837
Ġgrim 8.296337
Ġpurpose 5.359078
Ġ- 6.7746673
Ġfodder 10.774861
Ġfor 0.1618515
Ġthe 0.48101866
Ġins 7.9927616
at 0.06836898
iable 0.00058806554
Ġhunger 2.4748952
Ġof 0.20538169
Ġthe 0.47023574
Ġsoul 3.5260344
Ġfarmers 0.28342345
Ġthat 5.141162
Ġto 7.420222
iled 1.0229459
Ġin 1.1752585
Ġsecret 4.715531
Ġto 2.7234726
Ġreap 5.740028
Ġtheir 1.6176434
Ġhar 6.552981
v 0.037008345
ests 0.0007266188
Ġeach 5.875384
Ġnight 0.58705485
. 0.09988584
ĠTheir 7.1147766
Ġsinister 5.1188025
Ġlaughter 3.088877
Ġechoed 1.8869102
Ġthrough 1.5682336
Ġthe 0.29717925
Ġempty 1.8312342
Ġhalls 2.9834194
Ġof 0.9239634
Ġthe 1.1463614
Ġfarm 4.2654014
house 0.44344506
, 1.583682
Ġcelebrating 8.149833
Ġanother 6.072647
Ġbount 6.898589
iful 0.012601253
Ġharvest 0.07200392
Ġbefore 5.8125296
Ġthey 2.3076558
Ġcontinued 5.8410263
Ġonto 5.9768257
Ġthe 0.7837153
Ġnext 0.172604
Ġcrop 4.642981
Ġof 1.3141617
Ġhuman 1.8682795
Ġch 7.5293226
att 0.08437336
el 1.2338998
. 0.27035305
ĠAnd 4.5683174
Ġthe 2.6528323
Ġsun 8.105338
Ġrose 1.5667393
Ġagain 3.5330806
Ġon 3.5707467
Ġanother 3.4819398
Ġday 1.980477
Ġof 2.0829263
Ġcultivation 9.675511
Ġin 3.6426792
Ġhumanity 6.718537
's 0.81539994
Ġfields 10.361381
. 0.41923308
