# 6.1329737
Reb 9.943284
irth 4.0074215
Ġ*** 10.084132
ĠPart 8.128136
Ġ1 1.3853135
ĠThe 6.557533
Ġforest 9.618738
Ġcame 5.294386
Ġto 2.3548656
Ġlife 0.27003324
Ġas 2.8306582
ĠEd 8.653302
dy 3.024043
Ġcrashed 8.242211
Ġthrough 0.6462921
Ġthe 0.8193026
Ġtre 4.3837695
eline 2.7457142
, 1.5136505
Ġstray 12.164515
Ġvines 5.263975
Ġand 1.2203614
Ġbranches 2.2846408
Ġsnapping 3.3660188
Ġat 0.6554219
Ġhis 0.21687977
Ġface 2.0375786
Ġand 2.9588623
Ġexposed 10.255918
Ġarms 4.1802497
Ġas 2.056534
Ġhe 0.22852342
Ġwe 7.521744
aved 0.01152554
Ġbetween 2.7186725
Ġtrees 3.5066674
. 0.78586286
ĠHis 2.804813
Ġlegs 4.3390436
Ġbeat 7.480076
Ġfuriously 4.096172
Ġbeneath 3.810358
Ġhim 0.18152109
Ġwith 5.3811364
Ġdistress 11.783948
Ġas 1.6393539
Ġthe 2.3521059
Ġforest 2.9267066
Ġlur 5.743063
ched 0.014517359
Ġout 5.3721585
Ġof 0.21475795
Ġits 1.8625017
Ġprevious 5.8170447
Ġstill 5.287793
Ġstate 3.162395
. 0.9206222
ĠA 3.4584641
Ġbang 10.114255
Ġrang 2.8833249
Ġout 0.7067302
Ġthrough 3.550469
Ġthe 0.03434089
Ġtrees 1.713718
Ġas 1.2777472
Ġa 1.439475
Ġdark 5.0497947
Ġblur 5.9070277
Ġwh 5.5106063
izz 0.34024355
ed 0.009267362
Ġpast 0.62812006
ĠEd 2.412554
dy 0.031430773
bytes:\xe2\x80 2.3525212
bytes:\x99 0.00019225522
s 0.00051960035
Ġhead 1.7826595
. 1.2717226
ĠHe 1.5418105
Ġjumped 3.9956088
Ġin 3.224774
Ġalarm 3.4205847
Ġand 1.6568485
Ġred 9.74842
ou 0.76244223
bled 0.0040464806
Ġhis 0.0801406
Ġspeed 3.5612798
Ġas 1.4604448
Ġthe 1.6411617
Ġold 7.347211
Ġfarmer 7.7147527
Ġraised 7.127532
Ġhis 0.45831522
Ġrifle 1.7968738
Ġagain 4.7697477
, 1.8688582
Ġa 3.6195004
Ġfoul 8.716159
Ġcurse 6.5245337
Ġon 2.7648914
Ġhis 0.06717226
Ġlips 0.0776975
. 1.1125684
ĠJust 6.075598
Ġas 0.8551467
ĠEd 1.5962727
dy 0.0060028657
Ġrounded 6.0035753
Ġthe 0.7984385
Ġfinal 3.8682249
Ġtree 2.8135982
Ġand 2.5900955
Ġdisappeared 5.5511994
Ġout 4.2039084
Ġof 0.19988182
Ġsight 0.109787285
, 0.6438838
Ġanother 3.5144646
Ġshot 3.3084655
Ġrang 0.1789141
Ġout 0.04268811
Ġand 1.8044807
Ġripped 7.897748
Ġthrough 0.76453155
Ġthe 0.08106254
Ġtree 4.1306534
Ġright 5.5652695
Ġbehind 1.6758549
Ġhim 0.22752725
. 0.24879
ĠHe 2.1898012
Ġwas 3.527608
Ġshow 10.625513
ered 0.0062971506
Ġin 0.7706004
Ġwood 5.0136237
Ġchips 0.5056423
Ġand 0.80155903
Ġdust 4.1285057
Ġas 0.8322148
Ġhis 2.6046612
Ġlegs 3.575115
Ġgave 3.017413
Ġup 4.6628447
Ġbeneath 3.2727876
Ġhim 0.012593345
Ġand 1.5057957
Ġhe 0.52716553
Ġt 2.7038603
umbled 0.0019828202
Ġdown 1.4149848
Ġa 2.918758
Ġhidden 7.7464767
Ġhill 3.2170925
. 1.4030782
ĠThe 2.0927439
Ġsun 4.5800443
Ġdipped 6.061858
Ġbelow 1.2358487
Ġthe 0.056553222
Ġhorizon 0.17491111
, 2.272423
Ġstray 11.922243
Ġbeams 4.8161488
Ġstill 6.605947
Ġmaking 4.833038
Ġtheir 0.47933364
Ġway 0.092946455
Ġthrough 0.9778826
Ġthe 0.058228426
Ġbranches 4.8162303
Ġas 2.4172907
ĠEd 1.6879022
dy 0.006396425
Ġstirred 8.410288
Ġawake 3.6503131
. 0.91754746
ĠA 3.1954486
Ġriver 8.198803
Ġg 5.727553
ushed 2.0195782
Ġlaz 7.1676846
ily 6.933416e-05
Ġby 4.21486
Ġbeneath 4.349271
Ġhim 1.2099214
, 1.0653509
Ġbathing 6.8529725
Ġhis 1.3562789
Ġlegs 3.7928743
Ġand 2.341939
Ġfeet 2.1688447
Ġin 0.1737923
Ġits 3.1280503
Ġcold 3.3151932
Ġwaters 1.9284186
. 0.50743234
ĠEd 2.0563354
dy 0.011158165
Ġgro 4.4339037
aned 0.18015096
Ġin 2.298178
Ġpain 1.738121
Ġand 1.4214779
Ġexhaustion 3.9573805
Ġas 0.78986263
Ġhe 0.4079479
Ġsat 2.5565953
Ġup 0.21718322
, 1.2028905
Ġblood 4.442449
Ġrunning 3.2500863
Ġdown 0.6623269
Ġfrom 3.0734415
Ġa 1.3386973
Ġfresh 4.11543
Ġg 1.2942035
ash 0.0038576825
Ġin 1.653092
Ġhis 0.08394556
Ġleg 3.0861223
Ġand 2.5728106
Ġinto 3.7166903
Ġthe 1.1357983
Ġwater 2.0726893
. 0.33825526
ĠN 7.5150685
umb 2.5381904
ly 1.0676396
, 0.59960383
ĠEd 1.7253531
dy 0.0037542332
Ġwatched 3.0677407
Ġthe 0.82762235
Ġcrimson 6.3151846
Ġdrops 5.4240365
Ġproduce 12.003337
Ġclouds 6.9746857
Ġin 3.3661163
Ġthe 0.18652478
Ġwater 2.2917595
, 1.5337155
Ġand 3.4887156
Ġthen 1.9836897
Ġflow 6.3572583
Ġlaz 4.6530356
ily 0.00013431041
Ġby 4.7492776
. 1.1936392
ĠThey 5.8570433
Ġwere 2.0669284
Ġat 6.3584967
Ġthe 1.6741978
Ġmercy 5.102056
Ġof 0.009335406
Ġthe 0.43103284
Ġcurrents 3.4040973
Ġit 8.7584915
Ġseemed 4.700034
. 1.1897954
ĠC 6.760266
ring 6.4877048
ing 0.022354377
Ġat 3.2270086
Ġthe 0.6173623
Ġsting 6.544114
, 1.8604043
ĠEd 0.2271552
dy 0.002127242
Ġraised 5.476211
Ġhis 0.33334962
Ġhead 1.0485755
Ġto 1.7656121
Ġlook 1.5683572
Ġat 1.1086044
Ġhis 2.0877833
Ġsurroundings 2.219705
. 0.4921884
ĠThey 5.7591095
Ġwere 0.3146583
Ġunfamiliar 6.297165
, 1.1492314
Ġcold 6.8053565
, 1.7048714
Ġplain 7.91506
Ġand 1.8194598
Ġall 5.7454796
Ġthe 2.9421375
Ġsame 1.361305
. 0.5203314
ĠHe 1.9320537
Ġrubbed 4.3748403
Ġhis 0.5821918
Ġstomach 6.845914
; 6.088623
Ġthe 1.9909116
Ġfamiliar 4.7980766
Ġfam 13.006134
el 7.869297
ic 2.838753
ose 12.220745
Ġgn 7.9324393
aw 0.28586343
ing 0.41521823
Ġat 2.6314359
Ġhis 0.5304152
Ġgut 2.1754355
. 0.8695862
ĠBut 5.0147758
Ġthat 3.1446502
Ġwas 0.7583564
Ġno 3.1950758
Ġtrouble 5.2605295
, 1.406767
Ġhe 1.1928203
Ġcould 2.8567538
Ġjust 3.585154
Ġeat 3.2468839
Ġsome 3.0315714
Ġof 1.7575293
Ġthe 0.5506321
Ġbread 4.9710526
Ġand 1.4375567
Ġcheese 2.7132099
Ġhe 1.2670867
Ġhad 0.7212628
Ġstolen 4.475622
Ġfrom 0.49642792
Ġthe 0.36794487
Ġfarmer 2.8825061
. 1.1313467
ĠA 3.7713978
Ġsense 6.197584
Ġof 0.007811077
Ġpanic 4.2500687
Ġfilled 3.3428357
ĠEd 1.4993184
dy 0.0018943159
, 2.596515
Ġmaking 5.607726
Ġthe 3.2410538
Ġac 5.780552
he 0.031883426
Ġof 2.5841246
Ġhunger 3.3246136
Ġall 4.347252
Ġthe 0.10090636
Ġmore 0.45329192
Ġpronounced 4.0702214
Ġas 2.9799955
Ġhe 0.3789505
Ġsearched 4.5754976
Ġin 3.8562493
Ġvain 0.6896092
Ġfor 0.10339832
Ġthe 1.4562778
Ġlittle 4.742803
Ġpouch 3.7664497
Ġof 1.0095187
Ġfood 1.9766432
Ġhe 1.2884083
bytes:\xe2\x80 4.163877
bytes:\x99 0.0004891853
d 0.004753343
Ġtaken 2.543526
. 2.9309738
ĠDe 8.322819
jected 1.4585978
ly 0.24726778
, 0.07474781
Ġhe 0.9533619
Ġwatched 4.9030194
Ġthe 0.691745
Ġcurrents 7.3514166
Ġflow 3.1390526
Ġby 0.41803867
Ġonce 5.1048656
Ġmore 0.15327565
; 3.7494504
Ġthey 3.2265222
Ġmust 4.8396893
Ġhave 0.8943646
Ġtaken 4.0611706
Ġthat 4.8092346
Ġtoo 4.94411
. 0.59384847
ĠCold 8.206483
, 2.1853426
Ġhungry 2.9300404
Ġand 0.8076861
Ġinjured 7.725595
, 0.42758495
ĠEd 0.13287735
dy 0.0016609647
Ġtested 10.271016
Ġhis 1.0664561
Ġleg 3.9217181
Ġbefore 4.318844
Ġleaning 4.9641714
Ġon 2.7501338
Ġa 3.4801075
Ġtree 0.5489158
Ġon 7.689891
Ġthe 0.5473542
Ġbanks 4.116957
Ġof 0.16164248
Ġthe 0.09087236
Ġriver 0.23576212
. 0.5178954
ĠThe 1.8291931
Ġrough 5.87111
Ġbark 0.33145168
Ġscratched 2.9610212
Ġhis 1.4448098
Ġback 2.7318587
Ġreminding 10.186298
Ġhim 0.11020898
Ġjust 4.604525
Ġhow 0.14042455
Ġmuch 1.9825811
Ġhe 1.2561783
Ġhated 3.976323
Ġnature 5.0611963
. 0.33116812
ĠIf 5.628292
Ġall 6.261538
Ġhad 4.20801
Ġgone 1.0388695
Ġto 2.1248896
Ġplan 0.03853665
, 0.3712039
Ġhe 0.70764005
bytes:\xe2\x80 2.0422432
bytes:\x99 0.00023488217
d 0.0030383917
Ġbe 1.0599545
Ġat 4.396228
Ġhome 1.6421428
Ġenjoying 6.8136044
Ġhis 1.8217772
Ġwin 9.120816
nings 1.1522408
Ġright 3.710729
Ġnow 0.2226344
. 0.38275978
ĠBut 1.2271928
Ġno 2.8545122
, 0.4822302
Ġhe 1.3069224
Ġjust 4.6379323
Ġhad 1.7018751
Ġto 0.09526257
Ġwake 6.5604935
Ġup 0.13142332
Ġthat 6.9583306
Ġdarn 5.5434566
Ġro 9.125101
oster 0.2747112
, 2.5705287
Ġcalling 10.704938
Ġthe 2.8801472
Ġfarmer 3.2063854
Ġto 2.3671868
Ġthe 3.2869248
Ġbarn 3.031479
Ġdoor 4.2821074
. 0.75571144
ĠHe 2.359003
bytes:\xe2\x80 2.5748959
bytes:\x99 0.00012274434
d 0.023804668
Ġhad 3.269006
Ġto 2.3361673
Ġbreak 5.868389
Ġthrough 3.7716565
Ġa 2.5089102
Ġlayer 5.0182314
Ġof 0.011366311
Ġrotting 6.1911373
Ġplan 6.5258465
ks 0.03566588
Ġjust 4.7310333
Ġto 0.15165928
Ġmake 3.5319598
Ġit 0.79456764
Ġout 1.953711
Ġunsc 6.689106
athed 0.0142178675
Ġbefore 5.705263
Ġtaking 7.760312
Ġoff 2.868602
Ġinto 3.1995306
Ġthe 0.039569832
Ġforest 1.7491233
. 0.5657187
ĠA 4.002195
Ġslight 5.7678366
Ġhis 5.7488356
s 0.46915996
Ġalongside 11.561069
Ġa 2.5743876
Ġsmooth 7.952639
Ġthing 11.2289
Ġsl 6.1302285
ithering 2.3546405
Ġon 3.9457004
Ġhis 2.9643126
Ġhand 4.4234147
Ġmade 1.8238487
Ġhim 1.2277508
Ġjump 2.0437834
Ġback 3.6896753
Ġand 2.7691815
Ġcollapse 8.288945
Ġto 1.7910316
Ġthe 0.32604006
Ġground 0.3414649
Ġagain 4.5211096
. 0.28876907
ĠRa 8.709658
ising 0.027607055
Ġhis 0.37091407
Ġeyes 3.373095
, 0.7046965
ĠEd 1.0246446
dy 0.0045392015
Ġwatched 2.7425334
Ġa 1.9697663
Ġsnake 4.972054
Ġhis 4.333661
s 0.4378286
Ġangrily 5.7701797
Ġbefore 3.5494113
Ġwrapping 5.302403
Ġitself 1.5558674
Ġaround 0.3254904
Ġanother 3.9852242
Ġbranch 2.7104354
Ġand 1.8735871
Ġsl 3.0533526
ithering 0.079451405
Ġaway 1.7625475
. 0.75448215
ĠOh 5.7298713
, 1.022703
Ġhow 2.6084034
Ġhe 0.7472366
Ġhated 0.7893999
Ġnature 3.4313028
. 0.698413
ĠGr 7.232664
itting 2.4086072
Ġhis 0.017263422
Ġteeth 0.005971926
, 0.28236392
Ġhe 1.8431945
Ġreached 4.1416903
Ġfor 1.7282317
Ġa 2.1133473
Ġnearby 3.4073925
Ġbranch 1.8521924
Ġand 0.83356345
Ġtested 6.681918
Ġits 2.0382156
Ġstrength 0.8411418
Ġbefore 1.3708941
Ġusing 4.7078576
Ġit 0.43750435
Ġto 0.3498241
Ġstand 4.120228
Ġup 1.3554126
Ġagain 2.860976
. 0.10001488
ĠHe 1.9311236
bytes:\xe2\x80 2.5330272
bytes:\x99 0.00018700723
d 0.008265429
Ġget 4.9005914
Ġout 2.7461102
Ġof 0.14426361
Ġhere 1.3277509
. 2.2873352
ĠMaybe 4.8280478
Ġhe 1.3793356
bytes:\xe2\x80 0.9670543
bytes:\x99 0.00018533925
d 0.012081498
Ġeven 1.0991045
Ġbe 2.2149746
Ġable 0.15031171
Ġto 0.0038959202
Ġfind 1.9048966
Ġthe 2.334334
Ġsack 5.9261594
Ġof 0.47144103
Ġfood 0.9316096
Ġbefore 3.425623
Ġhe 1.4424417
Ġeven 5.8359904
Ġleft 2.506353
? 6.332834
ĠCome 7.688008
Ġon 0.70153546
ĠEd 2.2932765
dy 0.04290155
, 0.4452857
ĠDon 8.84361
bytes:\xe2\x80 0.27023485
bytes:\x99 7.314978e-05
t 0.012502027
Ġpart 11.845146
Ġwith 2.8679194
Ġyour 1.5843658
Ġillusions 8.8147955
Ġnow 4.1411057
, 1.8685296
Ġhe 3.522984
Ġthought 1.8679911
Ġas 2.0892546
Ġhis 2.6868382
Ġown 6.645559
Ġdoubts 5.2060947
Ġbegan 1.6911911
Ġto 0.035289224
Ġsettle 6.0699964
Ġin 0.84896743
. 0.26806244
ĠWith 4.7742367
Ġa 0.4906548
Ġgrunt 2.8029075
Ġof 1.8969283
Ġdetermination 3.379391
Ġt 12.814246
inged 0.18190543
Ġwith 0.042471845
Ġpain 2.806184
, 0.13381049
Ġhe 1.3320704
Ġhob 6.8237467
bled 0.0019691442
Ġaway 2.9144988
Ġfrom 0.41216654
Ġthe 0.07265151
Ġriver 0.71993387
Ġand 1.1918025
Ġdeeper 6.9913974
Ġinto 0.03894081
Ġthe 0.012879735
Ġnow 10.243493
- 2.2138948
sil 5.9574213
ent 0.15686294
Ġforest 0.13712564
. 0.20360787
Ġ*** 5.788816
ĠW 6.5583186
c 11.102836
: 3.7345443
Ġ5 5.627092
21 6.5537705
