# 6.606375
Reb 10.298935
irth 4.2086487
Ġ*** 10.575275
ĠPart 8.114231
Ġ1 1.7993819
ĠThe 5.496786
Ġforest 7.264415
Ġcame 5.47051
Ġto 1.5813915
Ġlife 1.1700501
Ġas 1.5615295
ĠEd 10.517665
dy 3.793112
Ġcrashed 6.274772
Ġthrough 0.37390772
Ġthe 0.41748312
Ġtre 4.3547306
eline 0.6007505
, 1.223075
Ġstray 9.215153
Ġvines 3.6778486
Ġand 0.9685297
Ġbranches 0.46346238
Ġsnapping 2.3881664
Ġat 2.5423176
Ġhis 0.68577
Ġface 0.88185614
Ġand 1.066816
Ġexposed 6.149515
Ġarms 1.1214687
Ġas 1.9160455
Ġhe 0.18037395
Ġwe 4.559863
aved 0.0141627295
Ġbetween 2.119724
Ġtrees 2.182503
. 1.1353263
ĠHis 2.1142612
Ġlegs 3.4872155
Ġbeat 7.438633
Ġfuriously 3.8612278
Ġbeneath 4.382404
Ġhim 0.04997793
Ġwith 4.9446983
Ġdistress 12.863497
Ġas 1.8741517
Ġthe 2.0510778
Ġforest 3.6411393
Ġlur 7.3955307
ched 0.029829184
Ġout 3.9955752
Ġof 1.057143
Ġits 3.739982
Ġprevious 6.490934
Ġstill 2.3805878
Ġstate 3.9122841
. 1.1299042
ĠA 3.2883077
Ġbang 9.935079
Ġrang 2.7207525
Ġout 0.24658942
Ġthrough 2.3710394
Ġthe 0.021747421
Ġtrees 1.7324462
Ġas 1.6198971
Ġa 1.2906519
Ġdark 4.9994392
Ġblur 4.107789
Ġwh 4.010012
izz 0.075000845
ed 0.0018145955
Ġpast 0.6468237
ĠEd 1.8641665
dy 0.023826215
bytes:\xe2\x80 1.6409926
bytes:\x99 0.0004436879
s 0.00033963655
Ġhead 0.8808684
. 1.243319
ĠHe 1.2355783
Ġjumped 4.5475283
Ġin 2.4686015
Ġalarm 4.2031255
Ġand 1.6586274
Ġred 6.4913874
ou 0.060094632
bled 0.0030246407
Ġhis 0.008143977
Ġspeed 2.18457
Ġas 1.7964386
Ġthe 1.4153979
Ġold 8.540118
Ġfarmer 8.436511
Ġraised 6.367709
Ġhis 0.24767391
Ġrifle 1.4802163
Ġagain 2.1295319
, 1.5508783
Ġa 3.391402
Ġfoul 6.7854567
Ġcurse 1.4410001
Ġon 2.0936694
Ġhis 0.038341783
Ġlips 0.1668721
. 0.23911944
ĠJust 6.3582296
Ġas 1.042656
ĠEd 1.2916105
dy 0.0025841766
Ġrounded 5.000152
Ġthe 1.1776692
Ġfinal 2.81773
Ġtree 0.35862103
Ġand 1.8374532
Ġdisappeared 4.973917
Ġout 2.7027981
Ġof 0.21814674
Ġsight 0.30221236
, 0.54010534
Ġanother 2.5176578
Ġshot 1.2351075
Ġrang 0.41302133
Ġout 0.04907577
Ġand 1.7391146
Ġripped 5.110981
Ġthrough 0.60142165
Ġthe 0.21579145
Ġtree 3.8987958
Ġright 4.8395395
Ġbehind 1.8383756
Ġhim 0.30284014
. 0.37673867
ĠHe 2.4986851
Ġwas 3.6671782
Ġshow 8.989625
ered 0.0028127811
Ġin 0.6096405
Ġwood 2.5018344
Ġchips 2.0739777
Ġand 0.44587395
Ġdust 4.3883862
Ġas 0.7940577
Ġhis 3.273832
Ġlegs 2.9041762
Ġgave 3.4316406
Ġup 2.6556528
Ġbeneath 2.3483639
Ġhim 0.012226844
Ġand 0.83145034
Ġhe 0.25324354
Ġt 1.7042384
umbled 0.00038674276
Ġdown 2.476328
Ġa 1.2097856
Ġhidden 6.3842545
Ġhill 2.3074026
. 1.146818
ĠThe 2.3396442
Ġsun 5.930451
Ġdipped 5.457898
Ġbelow 0.9728119
Ġthe 0.0157619
Ġhorizon 0.54823637
, 1.6925912
Ġstray 11.008184
Ġbeams 1.0006859
Ġstill 5.141601
Ġmaking 4.08485
Ġtheir 0.3192777
Ġway 0.03338255
Ġthrough 0.1931231
Ġthe 0.10730447
Ġbranches 3.0794995
Ġas 2.2756884
ĠEd 0.5994995
dy 0.0004644415
Ġstirred 7.156548
Ġawake 3.3533022
. 0.2555028
ĠA 3.033897
Ġriver 7.844683
Ġg 2.5917642
ushed 2.0047138
Ġlaz 6.441264
ily 0.000120481265
Ġby 2.7931142
Ġbeneath 4.644108
Ġhim 0.17365119
, 0.55832046
Ġbathing 7.7726617
Ġhis 1.3426079
Ġlegs 4.0995193
Ġand 2.2849789
Ġfeet 1.3704787
Ġin 0.16315892
Ġits 1.3761768
Ġcold 2.541354
Ġwaters 1.9919661
. 0.25180665
ĠEd 2.1827638
dy 0.0029309627
Ġgro 2.3410146
aned 0.0127073135
Ġin 2.561801
Ġpain 0.7486138
Ġand 1.1977322
Ġexhaustion 5.7965193
Ġas 0.74042296
Ġhe 0.13921095
Ġsat 2.4738066
Ġup 0.082629904
, 0.7222662
Ġblood 6.1153336
Ġrunning 2.886077
Ġdown 0.47774363
Ġfrom 3.3414388
Ġa 0.8409209
Ġfresh 3.6135008
Ġg 1.5340554
ash 0.0003477465
Ġin 1.4792516
Ġhis 0.045039337
Ġleg 4.4857388
Ġand 2.4590259
Ġinto 2.9315512
Ġthe 0.36631542
Ġwater 1.0996959
. 0.4705142
ĠN 8.210077
umb 2.2942162
ly 1.3509818
, 0.42545414
ĠEd 1.5910126
dy 0.00062408816
Ġwatched 4.0627255
Ġthe 0.8706924
Ġcrimson 2.5735042
Ġdrops 4.6398745
Ġproduce 11.261977
Ġclouds 6.433895
Ġin 2.4125881
Ġthe 0.038988467
Ġwater 0.98880327
, 1.6657709
Ġand 3.4112709
Ġthen 2.0872421
Ġflow 5.593446
Ġlaz 5.0805125
ily 0.00043820243
Ġby 4.895516
. 0.9876065
ĠThey 4.694646
Ġwere 1.668576
Ġat 6.439881
Ġthe 1.5256023
Ġmercy 3.2258446
Ġof 0.0062228977
Ġthe 0.13576774
Ġcurrents 3.6744344
Ġit 8.682678
Ġseemed 0.061362576
. 0.7755998
ĠC 6.6714053
ring 4.644982
ing 0.013659089
Ġat 2.1506624
Ġthe 0.13695194
Ġsting 4.791927
, 1.8583727
ĠEd 0.15316764
dy 0.0002038222
Ġraised 3.8975976
Ġhis 0.38910773
Ġhead 2.5333614
Ġto 1.2555664
Ġlook 1.48054
Ġat 1.3585844
Ġhis 0.79536045
Ġsurroundings 0.47660413
. 0.23897326
ĠThey 3.9294662
Ġwere 0.39950442
Ġunfamiliar 3.5925195
, 1.2080866
Ġcold 7.2156587
, 1.2292026
Ġplain 11.285194
Ġand 1.2612976
Ġall 6.50844
Ġthe 2.4282062
Ġsame 0.7768346
. 0.37156862
ĠHe 2.0249617
Ġrubbed 5.185638
Ġhis 0.29019108
Ġstomach 7.6487665
; 4.499751
Ġthe 2.4103222
Ġfamiliar 3.9643345
Ġfam 9.044343
el 6.7984877
ic 3.8289416
ose 16.706358
Ġgn 2.523461
aw 0.0143162375
ing 0.19721438
Ġat 2.254232
Ġhis 0.38102034
Ġgut 1.9090939
. 0.7580283
ĠBut 4.9678326
Ġthat 3.7098987
Ġwas 0.82870555
Ġno 3.5653822
Ġtrouble 7.832656
, 1.3030503
Ġhe 1.2773368
Ġcould 1.8251833
Ġjust 3.1829622
Ġeat 3.059667
Ġsome 1.7248248
Ġof 1.357459
Ġthe 0.32088643
Ġbread 6.5117927
Ġand 2.6826847
Ġcheese 1.4771315
Ġhe 0.7660039
Ġhad 0.5233561
Ġstolen 3.0031111
Ġfrom 0.349037
Ġthe 0.3939159
Ġfarmer 0.94497174
. 1.342787
ĠA 3.8627334
Ġsense 6.2607555
Ġof 0.0070229457
Ġpanic 3.0711026
Ġfilled 3.0206645
ĠEd 1.0143
dy 0.00078441907
, 3.09023
Ġmaking 4.4744697
Ġthe 3.2735596
Ġac 4.4046926
he 0.23006313
Ġof 3.4822905
Ġhunger 1.3338779
Ġall 3.2229817
Ġthe 0.057976697
Ġmore 0.43033996
Ġpronounced 4.2808404
Ġas 2.448186
Ġhe 0.19753182
Ġsearched 2.3148346
Ġin 4.2494116
Ġvain 0.5373227
Ġfor 0.27816606
Ġthe 0.99109465
Ġlittle 6.0098314
Ġpouch 3.3934844
Ġof 1.5574951
Ġfood 0.424265
Ġhe 1.4312398
bytes:\xe2\x80 3.236888
bytes:\x99 0.0006993585
d 0.0010495456
Ġtaken 2.742679
. 0.7936376
ĠDe 8.732727
jected 0.17198367
ly 0.87786686
, 0.25438356
Ġhe 0.6865513
Ġwatched 5.234824
Ġthe 0.52613664
Ġcurrents 5.076245
Ġflow 3.0002062
Ġby 0.839331
Ġonce 4.0769157
Ġmore 0.30586514
; 3.9120526
Ġthey 3.0928457
Ġmust 5.2526574
Ġhave 0.18864262
Ġtaken 1.5463101
Ġthat 5.786014
Ġtoo 0.5287495
. 0.17885901
ĠCold 7.292029
, 1.8725951
Ġhungry 1.842834
Ġand 0.4559072
Ġinjured 2.524548
, 0.26489308
ĠEd 0.17273109
dy 0.0011001427
Ġtested 9.140901
Ġhis 0.3059247
Ġleg 0.7718369
Ġbefore 4.5676026
Ġleaning 5.3684225
Ġon 1.5473412
Ġa 1.9362245
Ġtree 1.8799192
Ġon 7.4196687
Ġthe 0.8716444
Ġbanks 3.4562602
Ġof 0.33156702
Ġthe 0.009102118
Ġriver 0.08945318
. 0.74218386
ĠThe 2.2177863
Ġrough 5.1887236
Ġbark 0.059147403
Ġscratched 3.007026
Ġhis 1.0890203
Ġback 2.321354
Ġreminding 11.668291
Ġhim 0.07909105
Ġjust 4.0517626
Ġhow 0.0788996
Ġmuch 2.9054089
Ġhe 0.896859
Ġhated 1.652439
Ġnature 2.2669647
. 0.29910263
ĠIf 4.7808847
Ġall 6.178865
Ġhad 5.6206694
Ġgone 0.16809121
Ġto 0.55345577
Ġplan 0.013008831
, 0.38733372
Ġhe 0.71474373
bytes:\xe2\x80 1.1772251
bytes:\x99 0.0002600399
d 0.00087741966
Ġbe 0.46768388
Ġat 3.1463068
Ġhome 1.5122085
Ġenjoying 4.958536
Ġhis 2.091585
Ġwin 6.938739
nings 0.010941022
Ġright 2.8420203
Ġnow 0.16720086
. 0.40099493
ĠBut 1.8392023
Ġno 1.8983054
, 0.2642649
Ġhe 1.467296
Ġjust 4.412695
Ġhad 0.100543596
Ġto 0.0070777507
Ġwake 7.438404
Ġup 0.06642314
Ġthat 5.16122
Ġdarn 7.371296
Ġro 6.760421
oster 0.028602315
, 1.9197457
Ġcalling 10.835005
Ġthe 1.6455878
Ġfarmer 0.5901468
Ġto 1.2706444
Ġthe 1.8109691
Ġbarn 0.9174027
Ġdoor 6.4145017
. 0.8186997
ĠHe 1.930183
bytes:\xe2\x80 1.309206
bytes:\x99 0.00028627427
d 0.010145717
Ġhad 2.5441756
Ġto 0.75577295
Ġbreak 5.1624265
Ġthrough 3.772284
Ġa 2.3896518
Ġlayer 6.9863267
Ġof 0.008250525
Ġrotting 5.937464
Ġplan 3.4691048
ks 0.00021896455
Ġjust 3.3610609
Ġto 0.033968985
Ġmake 3.5795093
Ġit 0.9948574
Ġout 0.87911737
Ġunsc 5.3732085
athed 0.020247662
Ġbefore 5.342769
Ġtaking 5.782468
Ġoff 1.096078
Ġinto 1.0730431
Ġthe 0.013410233
Ġforest 1.2352325
. 0.32804596
ĠA 3.746547
Ġslight 5.7684016
Ġhis 5.344038
s 0.4312873
Ġalongside 9.307618
Ġa 3.5379958
Ġsmooth 7.278621
Ġthing 9.913963
Ġsl 6.161745
ithering 0.15065522
Ġon 3.4829903
Ġhis 1.0440178
Ġhand 3.635074
Ġmade 1.0997132
Ġhim 1.3911295
Ġjump 0.78899354
Ġback 2.5509322
Ġand 2.5344462
Ġcollapse 6.2336597
Ġto 2.197963
Ġthe 0.08287135
Ġground 0.43083712
Ġagain 4.1465893
. 0.3791992
ĠRa 7.589749
ising 0.0073682647
Ġhis 0.24514396
Ġeyes 3.374341
, 0.7921745
ĠEd 0.5859195
dy 0.00019213694
Ġwatched 3.1011884
Ġa 1.459561
Ġsnake 1.3836284
Ġhis 5.1505103
s 0.15863538
Ġangrily 2.9057813
Ġbefore 2.4731975
Ġwrapping 4.81769
Ġitself 0.68705213
Ġaround 0.18206982
Ġanother 5.9558864
Ġbranch 1.7120506
Ġand 1.4853032
Ġsl 1.8072678
ithering 0.11984239
Ġaway 0.7612563
. 0.3643884
ĠOh 6.4605064
, 1.3579577
Ġhow 1.9442397
Ġhe 0.35967654
Ġhated 0.5006284
Ġnature 0.57459486
. 0.23243631
ĠGr 5.9936743
itting 0.814113
Ġhis 0.0046874066
Ġteeth 0.0048056855
, 0.53538895
Ġhe 2.556962
Ġreached 4.339635
Ġfor 1.5234723
Ġa 1.720134
Ġnearby 1.5347165
Ġbranch 1.3305514
Ġand 0.55220133
Ġtested 4.20801
Ġits 2.101681
Ġstrength 0.8502764
Ġbefore 0.83663446
Ġusing 2.851579
Ġit 0.04631896
Ġto 0.34098813
Ġstand 2.3849308
Ġup 0.82870656
Ġagain 1.9107417
. 0.08716447
ĠHe 1.8016194
bytes:\xe2\x80 2.6958008
bytes:\x99 0.00013609948
d 0.006661843
Ġget 3.5679173
Ġout 1.5622272
Ġof 0.051422413
Ġhere 1.1848319
. 2.3322031
ĠMaybe 4.8018045
Ġhe 0.9464532
bytes:\xe2\x80 0.6993399
bytes:\x99 6.289782e-05
d 0.02597981
Ġeven 2.4791746
Ġbe 3.016433
Ġable 0.3126363
Ġto 0.0035342656
Ġfind 1.191746
Ġthe 2.1498346
Ġsack 6.031272
Ġof 0.59537905
Ġfood 0.5997335
Ġbefore 3.956083
Ġhe 2.0600717
Ġeven 6.8178964
Ġleft 1.5964152
? 6.5747213
ĠCome 8.053967
Ġon 0.7227972
ĠEd 1.1365142
dy 0.013785623
, 0.20107155
ĠDon 8.56931
bytes:\xe2\x80 0.02249159
bytes:\x99 0.00019237537
t 0.0007142718
Ġpart 13.705832
Ġwith 0.39091057
Ġyour 1.5869831
Ġillusions 7.0728717
Ġnow 2.0127
, 1.8224239
Ġhe 0.9788226
Ġthought 0.58096594
Ġas 2.5309763
Ġhis 3.6795623
Ġown 6.8288484
Ġdoubts 5.143327
Ġbegan 2.0348747
Ġto 0.080808744
Ġsettle 3.9037828
Ġin 0.27494916
. 0.19840871
ĠWith 4.0191593
Ġa 0.60580385
Ġgrunt 2.6375318
Ġof 1.8824543
Ġdetermination 2.4499576
Ġt 10.654552
inged 0.05973156
Ġwith 0.05088974
Ġpain 2.1106286
, 0.1364988
Ġhe 1.4421273
Ġhob 3.0252213
bled 0.0033125505
Ġaway 2.2568374
Ġfrom 0.6378015
Ġthe 0.028846024
Ġriver 0.1727456
Ġand 1.0962274
Ġdeeper 2.5429652
Ġinto 0.010174018
Ġthe 0.01303836
Ġnow 7.64252
- 2.8119423
sil 4.1336
ent 0.012000243
Ġforest 0.15422343
. 0.10525569
Ġ*** 2.1043353
ĠW 6.823984
c 10.831836
: 2.5833108
Ġ5 2.547795
21 4.4770474
