In 4.2490535
Ġan 3.7924995
Ġera 3.1901457
Ġof 1.0140531
Ġautomation 7.3372855
Ġand 1.2342165
Ġfluct 11.128905
uating 0.024948781
Ġauto 9.245596
Ġsales 1.3440351
, 0.33690402
Ġreal 8.255474
Ġwages 8.471015
Ġhave 1.411688
Ġbeen 1.5564065
Ġstagnant 1.5266066
Ġfor 0.74315536
Ġmore 2.8165944
Ġthan 0.016811555
Ġa 0.522024
Ġdecade 0.10169398
Ġfor 7.145977
Ġmany 1.6037775
Ġblue 4.4062495
- 0.50188625
collar 0.0016723684
Ġemployees 4.81142
, 2.2239585
Ġforcing 5.8685746
Ġthem 1.3321853
Ġto 0.12957011
Ġwork 3.0038154
Ġlonger 1.1656051
Ġhours 0.1878791
Ġand 1.4391037
Ġsometimes 4.931221
Ġtwo 7.923789
Ġjobs 1.3019446
Ġto 0.9389925
Ġmake 0.8003629
Ġends 0.051919654
Ġmeet 0.0050009545
. 0.09476869
ĠThis 4.849945
Ġmakes 4.739857
Ġthe 2.6847892
Ġrecent 5.7134075
Ġannouncement 5.328965
Ġby 0.90433735
Ġan 6.089669
Ġauto 2.52213
Ġparts 3.562266
Ġsupplier 1.4445791
Ġall 9.093852
Ġthe 0.3142403
Ġmore 0.012258041
Ġdist 5.204582
ressing 0.023303293
, 1.9252255
Ġas 0.8526093
Ġit 1.2809752
Ġreveals 5.6826043
Ġthe 1.5872178
Ġpossibility 6.095448
Ġof 0.5431619
Ġincreasing 6.1584425
Ġnumbers 5.7112727
Ġof 0.036635015
Ġunion 4.8758483
ized 0.24424046
Ġworkers 0.6660165
Ġearning 6.242934
Ġless 0.81072074
Ġthan 0.38133064
Ġ$ 1.3831103
10 1.6612425
Ġan 0.61499786
Ġhour 0.000841566
Ġin 3.0795965
Ġupcoming 8.46472
Ġyears 0.6877418
. 0.25070572
ĠThe 3.5468974
Ġnews 3.7569463
Ġwas 2.8357823
Ġpublished 4.74688
Ġby 1.2267219
ĠBR 10.445155
T 3.5561118
ĠAutom 4.568494
otive 0.16149032
, 0.8486499
Ġan 2.2401261
Ġauto 1.3109602
Ġsupplier 5.0617046
Ġthat 1.5520604
Ġprovides 2.5909035
Ġparts 1.1613588
Ġand 1.71202
Ġproducts 5.677789
Ġto 0.5421297
Ġcar 4.732649
Ġmanufacturers 1.5630146
Ġsuch 3.0047204
Ġas 0.0073611797
ĠGeneral 2.687079
ĠMotors 0.011545617
. 2.3268628
ĠThe 2.1151595
Ġcompany 0.85086423
bytes:\xe2\x80 2.7460837
bytes:\x99 0.00057607895
s 0.0010064063
Ġannouncement 1.3022635
Ġhas 3.9998999
Ġbecome 5.414837
Ġthe 1.7468144
Ġtopic 4.366228
Ġof 0.0130916815
Ġmuch 2.1317978
Ġdistress 11.678229
Ġfor 1.8318665
ĠGM 6.776765
Ġand 2.0615597
Ġthe 2.2675674
ĠUnited 3.63141
ĠAuto 0.07062618
ĠWorkers 0.006246467
Ġ( 1.3925927
U 0.08510984
AW 0.0010171444
) 1.1038384
Ġunion 1.5493428
, 0.8843683
Ġas 1.3293173
Ġit 1.8085958
Ġraises 4.9051256
Ġthe 1.2481188
Ġrisk 5.2487416
Ġof 0.32390052
Ġan 3.1072438
Ġimpending 3.2285197
Ġchallenge 9.504214
Ġfor 2.5790071
Ġfuture 5.9883757
Ġsalary 7.6875772
Ġand 2.7445912
Ġwage 2.0832853
Ġnegotiations 0.99040526
. 0.75682664
ĠThe 2.812747
Ġissue 4.486832
Ġfor 4.562086
ĠBR 6.3484335
T 0.00096094364
ĠAutom 0.63844943
otive 0.0005865158
Ġwas 3.1084888
Ġprimarily 7.343962
Ġrelated 2.8559406
Ġto 0.0054144957
Ġthe 0.7381766
Ġpand 15.699412
emic 0.8686062
. 10.745397
ĠAutom 4.879375
otive 2.068317
Ġpart 4.8804827
Ġproduction 3.2037215
Ġwas 3.740534
Ġseverely 5.693298
Ġimpacted 2.0606666
, 2.7255473
Ġas 1.3222284
Ġthe 1.8042138
Ġsales 7.3111963
Ġof 0.6581029
Ġvehicles 3.3301215
Ġduring 6.373972
Ġthe 0.36414465
Ġlast 3.1065557
Ġyear 2.1990817
Ġwere 1.8901305
Ġat 3.0380213
Ġtheir 1.8451043
Ġall 5.8177705
- 0.099256165
time 0.0010795591
Ġlow 0.5921613
. 0.4215317
ĠAmid 8.020014
st 0.9003567
Ġthis 1.5361751
, 0.93508554
Ġthe 1.127476
Ġcompany 0.5173212
Ġhad 3.2211661
Ġto 1.0514529
Ġreduce 3.404045
Ġits 1.2607331
Ġworkforce 1.0667394
Ġto 2.2980871
Ġmitigate 6.3229895
Ġthe 0.34396887
Ġimpact 1.2828526
Ġof 0.86435586
Ġthe 0.57887006
Ġdevastating 8.214067
Ġpand 9.525011
emic 0.006007121
Ġon 3.1430209
Ġits 1.2586856
Ġfinancial 5.2037697
s 1.3767828
. 0.18432243
ĠUnfortunately 6.5233493
, 0.13513699
Ġthe 1.1482111
Ġresult 5.7926755
Ġof 1.1212231
Ġthese 3.4908533
Ġfactors 5.170149
Ġled 3.4360907
Ġthe 2.5614696
Ġcompany 0.33026576
Ġto 0.095956795
Ġoffer 5.2793794
Ġa 1.6418906
Ġlower 3.7505007
Ġstandard 5.109469
Ġwage 3.039006
Ġupon 9.662971
Ġres 7.8268023
uming 1.1069397
Ġoperations 2.0448043
. 1.0017356
ĠThe 2.1616375
Ġamount 6.2038536
Ġoffered 2.9106536
Ġis 1.9136761
Ġwell 5.2736382
Ġunder 4.784742
Ġthe 0.41950005
Ġindustry 3.9881833
Ġstandard 2.1422863
, 1.4625555
Ġwhich 1.6374853
Ġposes 7.9029684
Ġan 2.4460366
Ġimminent 5.175778
Ġthreat 0.2883548
Ġfor 2.245473
Ġthe 1.227692
Ġfuture 1.7840114
Ġof 0.3319101
Ġthe 0.7175892
Ġauto 2.2683558
Ġindustry 0.214805
. 0.34742084
ĠThere 5.908762
Ġare 1.1083598
Ġseveral 2.409501
Ġdevelopments 7.622849
Ġthat 0.59824413
Ġhave 3.110797
Ġemerged 3.735952
Ġas 3.0326478
Ġa 0.113952465
Ġresult 0.09053376
Ġof 0.10136767
Ġthe 0.8499841
Ġnews 2.4205596
. 0.74278164
ĠFirstly 4.2269974
, 0.012593465
Ġthis 3.7865188
Ġdevelopment 5.8103967
Ġsheds 6.969853
Ġa 2.505338
Ġlight 1.5594591
Ġon 0.08874472
Ġthe 0.372233
Ġcontinuous 9.143174
Ġdownward 4.7077427
Ġpressure 1.733303
Ġon 0.3289065
Ġworkers 3.251921
bytes:\xe2\x80 0.66123307
bytes:\x99 0.00025371904
Ġwages 0.70410794
Ġin 2.1788888
Ġthe 0.5072782
Ġauto 1.0576845
Ġsector 2.5812595
. 0.32141632
ĠA 4.4050007
Ġlarge 4.7237306
Ġportion 2.2239046
Ġof 0.009616409
Ġmanufacturers 5.7840614
Ġalready 5.774054
Ġoperate 4.0668187
Ġon 2.1785626
Ġa 0.71638435
Ġworkforce 6.085296
Ġhaving 8.602307
Ġworkers 7.5151997
Ġcompensated 7.8564935
Ġon 3.032737
Ġminimum 6.7070765
Ġwages 1.5620996
, 1.3954439
Ġhence 6.220026
Ġpushing 6.386207
Ġthe 1.4395425
Ġlimits 6.982465
Ġfurther 5.5906653
Ġis 10.697052
Ġincreasingly 6.608599
Ġworrisome 6.2862926
. 0.23215397
ĠThe 2.6107495
ĠBR 7.377123
T 0.0034438255
Ġannouncement 3.844693
Ġreveals 5.3527403
Ġa 2.3863516
Ġnew 3.5365129
Ġreality 2.5406122
Ġwhere 5.1523104
Ġthe 1.645292
Ġbargaining 5.6250596
Ġpower 0.43574962
Ġof 0.09807145
Ġworker 5.9518127
Ġunions 3.6432962
Ġis 0.88720393
Ġcontinuously 7.010563
Ġreduced 3.5992095
. 1.0838733
ĠThe 2.1125157
Ġannouncement 4.0283804
Ġalso 1.2329272
Ġport 10.49883
ends 0.06733074
Ġthe 1.4549953
Ġfuture 3.0713966
Ġof 0.5161742
Ġwage 4.0626526
Ġnegotiations 0.35268617
Ġbetween 2.8169875
Ġthe 0.8353502
Ġworkers 4.7319236
, 3.6695237
Ġtheir 3.6599257
Ġcollective 5.603458
Ġunions 3.707427
, 0.812346
Ġand 0.15569423
Ġthe 0.6104587
Ġmanufacturers 1.9748993
Ġwho 4.979294
Ġemploy 2.2070959
Ġthem 0.111109205
. 0.16087021
ĠGeneral 8.007669
ĠMotors 0.032574944
Ġhas 1.7360268
Ġalready 1.3642812
Ġtaken 3.9526083
Ġnote 5.3743424
Ġof 0.11608136
Ġthe 0.6938815
Ġconcerns 5.034603
. 3.8514347
ĠThe 1.5070672
Ġautomotive 6.648208
Ġgiant 1.43476
Ġrecognizes 10.307792
Ġthat 0.6143108
Ġits 2.6691077
Ġworkers 2.521384
Ġare 1.0777472
Ġprotected 8.485398
Ġby 0.83994555
Ġtheir 2.176251
Ġrespective 4.864598
Ġcollective 2.9891236
Ġbargaining 1.458764
Ġagreements 0.5120133
Ġthrough 5.7603264
Ġtheir 2.8518555
Ġrespective 3.251202
Ġunions 1.6053619
. 0.7403058
ĠThese 4.8577676
Ġagreements 0.1917531
Ġoutline 6.088433
Ġprotocol 11.992606
Ġand 1.645418
Ġarrangements 8.240297
Ġfor 1.1328151
Ġsalary 6.0510244
Ġincrements 6.0317144
, 0.9875327
Ġjob 3.2278626
Ġsecurity 1.2005217
, 0.22253945
Ġand 0.830412
Ġemployee 4.952577
Ġwelfare 4.0508676
Ġmatters 6.8263597
. 0.33062068
ĠThe 1.8807764
Ġagreements 4.7636847
Ġalso 1.6545122
Ġrecognize 5.7390323
Ġthat 1.0692526
Ġunions 4.9123363
Ġmust 3.0533617
Ġnegotiate 3.4140832
Ġfor 2.9400415
Ġbetter 3.3214686
Ġsalaries 4.783909
Ġfrom 5.8592267
Ġthe 1.4950405
Ġmanufacturers 0.8811884
. 1.218047
ĠSuch 5.118906
Ġcollective 5.5812154
Ġbargaining 0.3273486
Ġagreements 0.5910022
Ġdev 12.085559
iate 0.25216892
Ġdepending 11.734628
Ġon 0.13397233
Ġthe 0.39702916
Ġindustry 1.8806742
Ġand 1.3659586
Ġthe 1.2493335
Ġcountry 3.8143663
. 1.3428633
ĠNeg 8.570683
otiation 4.0475183
Ġbetween 2.8473804
ĠGeneral 7.0582066
ĠMotors 0.00293891
Ġand 0.15451333
Ġits 1.2824532
Ġworkers 1.2320157
Ġis 1.2334918
Ġexpected 3.6256368
Ġto 0.07028753
Ġbe 1.3152393
Ġmuch 4.334191
Ġtougher 3.2990866
Ġin 2.2609394
Ġthe 0.42912585
Ġupcoming 3.9533188
Ġyears 1.0106208
Ġas 2.352323
Ġthe 1.156803
Ġindustry 2.6355114
Ġlooks 4.9891586
Ġto 0.40540388
Ġrecover 7.20047
Ġfrom 0.28755265
Ġthe 0.2905951
Ġnegative 5.143537
Ġimpacts 3.1827354
Ġof 0.16436972
Ġthe 0.326465
Ġpand 1.8652564
emic 0.0031518145
. 0.22605212
ĠNo 7.8333597
Ġworker 6.9618835
Ġdesires 8.444886
Ġto 0.26157564
Ġsee 3.2255955
Ġtheir 1.0420709
Ġwages 1.4609146
Ġstagn 3.9412034
ate 0.09528611
Ġor 2.526121
Ġreduce 5.197947
, 2.3326387
Ġand 2.490298
Ġnegotiations 7.2389245
Ġwith 2.3462539
ĠGeneral 4.8492618
ĠMotors 0.0019674706
bytes:\xe2\x80 5.619446
bytes:\x99 0.000767239
Ġemployee 6.3898535
Ġunions 0.62595236
Ġare 1.2454845
Ġexpected 1.4170285
Ġto 0.009405739
Ġgrow 6.4211173
Ġtougher 3.2381346
Ġas 1.795602
Ġthe 0.81631136
Ġindustry 1.172555
Ġfights 5.722021
Ġever 8.6541
- 0.8782758
rising 3.4589672
Ġcost 3.854617
Ġpressures 1.9600601
Ġin 4.1553054
Ġtoday 7.351111
bytes:\xe2\x80 0.013496199
bytes:\x99 0.0002251634
s 0.00022731101
Ġmarket 2.1262126
. 0.11945414
ĠUnfortunately 6.7903004
, 0.09405499
Ġa 3.847662
Ġgrowing 4.589479
Ġnumber 0.59741765
Ġof 0.007504819
Ġmanufacturers 3.2414849
Ġfeel 5.274189
Ġthat 0.97739345
Ġthey 1.3031904
Ġare 1.7173556
Ġleft 5.8378396
Ġwith 0.830303
Ġfewer 5.7455635
Ġoptions 0.7953708
Ġto 1.9884663
Ġcut 5.108447
Ġdown 4.4229965
Ġtheir 2.5017848
Ġexpenses 5.423363
. 1.299766
ĠThe 1.8817471
Ġreduction 6.2374864
Ġin 0.5617553
Ġwork 4.8742237
forces 1.97731
Ġhas 2.4104202
Ġsomewhat 9.550783
Ġmit 6.174778
igated 0.0015852643
Ġthe 0.3673741
Ġcash 8.809465
Ġflow 1.0286295
Ġand 3.7912092
Ġliquidity 5.0768137
Ġchallenges 5.0949965
Ġfaced 2.1007762
Ġby 0.023105035
Ġmanufacturers 2.06197
. 1.0162092
ĠHowever 2.3868732
, 0.006128437
Ġthe 1.2100797
Ġoverall 5.272342
Ġaccounting 10.60004
Ġgrowth 8.704812
Ġof 1.4773285
Ġcompanies 3.528951
Ġessential 11.607959
Ġremains 9.05085
Ġunder 5.8006973
Ġbleak 12.027706
Ġprospects 4.2413063
Ġas 2.8015845
Ġthe 1.3054637
Ġprofit 7.5639386
Ġmargin 1.8967507
Ġinches 8.476524
Ġlower 3.1458209
. 1.3310916
ĠThis 2.2509794
Ġresults 5.524019
Ġin 0.033592783
Ġan 2.9663517
Ġenvironment 4.3757443
Ġwhere 0.5763756
Ġworkers 3.428379
Ġand 3.5818126
Ġtheir 1.805072
Ġunions 0.8898517
Ġdemand 6.7875566
Ġhigher 1.9687668
Ġsalaries 2.168515
, 2.1094322
Ġwhereas 7.108164
Ġemployers 4.2789006
Ġare 1.3240887
Ġconfronted 7.397842
Ġwith 0.13860641
Ġreducing 7.0509105
Ġoverhead 6.657646
Ġcosts 0.7600802
Ġto 2.8465078
Ġstay 3.8851223
Ġcompetitive 0.86899096
Ġin 1.7034551
Ġthe 0.98856497
Ġlong 4.558897
Ġterm 1.5707345
. 0.05054692
ĠThe 1.6497765
Ġfight 7.2437725
Ġfor 0.8952603
Ġbetter 1.0569974
Ġwages 0.59251773
Ġis 1.5031077
Ġthe 5.015058
Ġmost 2.8760676
Ġpressing 2.3735065
Ġconcern 2.6240444
Ġfacing 2.443057
ĠGeneral 3.5415866
ĠMotors 0.0011289659
Ġand 0.9103714
Ġindustry 8.317895
Ġmanufacturers 4.3391614
Ġfor 4.9627557
Ġthe 0.23179662
Ġforeseeable 1.5361563
Ġfuture 0.0039316397
. 0.11079785
ĠReports 7.8636823
Ġsuggest 2.3336937
Ġthat 0.061200913
Ġit 4.2438793
Ġis 1.1023705
Ġlikely 2.5970483
Ġthat 0.26747668
Ġwidening 12.939937
Ġwage 1.158848
Ġgaps 0.66621584
Ġwill 0.7024601
Ġpose 6.4183044
Ġa 0.4439453
Ġsignificant 2.671027
Ġchallenge 1.3013595
Ġto 0.8296918
Ġmanufacturers 3.207359
Ġin 1.3289644
Ġthe 0.1465655
ĠUS 7.2048845
, 2.00882
Ġnot 5.469011
Ġonly 0.7189101
Ġduring 4.551245
Ġthe 0.2091781
Ġnegotiation 11.107679
Ġprocess 0.98416823
Ġbut 0.9224649
Ġalso 0.33076602
Ġas 3.4905274
Ġa 1.4054686
Ġresult 0.38326183
Ġof 0.010804417
Ġthe 0.7042241
Ġrisk 7.870667
Ġof 0.43148494
Ġlabor 4.3298793
Ġstrikes 2.9800785
Ġamong 6.3559966
Ġworkers 1.175126
. 0.34567288
ĠFor 4.6187673
ĠGeneral 3.7134228
ĠMotors 0.001597143
, 0.22683425
Ġit 2.1417272
Ġis 0.50522614
Ġof 4.8863187
Ġparamount 1.9002831
Ġimportance 0.15726793
Ġto 0.543043
Ġnegotiate 5.295309
Ġwith 2.7163308
Ġworker 6.8753886
Ġunions 0.49041477
Ġwell 6.152065
Ġand 5.3405
Ġcome 6.416634
Ġto 0.5465206
Ġa 1.0246736
Ġmutually 1.7349021
Ġbeneficial 0.8774448
Ġsolution 2.1121483
Ġto 2.122049
Ġprevent 5.1887364
Ġany 3.5991704
Ġof 4.676287
Ġsuch 6.906984
Ġproblems 4.0047126
. 1.4983095
ĠThe 1.7329799
ĠBR 3.6993449
T 0.0016791754
Ġannouncement 0.8208559
Ġis 2.0182471
Ġa 1.3916433
Ġtestament 4.4986744
Ġto 0.1445383
Ġthe 0.27886653
Ġongoing 4.101164
Ġchallenges 4.2048736
Ġthe 3.7752478
Ġindustry 1.9223725
Ġwill 3.6159594
Ġface 0.4539537
. 2.9965873
ĠHowever 3.6670806
, 0.0058068656
Ġit 1.5904542
Ġalso 1.0036685
Ġpresents 4.420702
ĠGM 5.3398147
Ġand 1.1840132
Ġthe 0.5955644
ĠU 0.5401992
AW 0.0040428895
Ġwith 0.33901536
Ġan 1.8993741
Ġopportunity 0.29633954
Ġto 0.15997519
Ġre 4.6940556
- 0.47379595
evaluate 2.6961823
Ġand 3.3041348
Ġwork 4.873496
Ġtogether 1.3598263
Ġto 0.7529922
Ġestablish 5.410458
Ġbetter 2.808016
Ġcollective 2.6980524
Ġbargaining 0.13184582
Ġagreements 0.5427784
. 1.3286072
ĠThe 1.7238134
Ġfuture 3.6646028
Ġchallenge 9.345735
Ġfor 1.0984093
Ġa 5.5553923
Ġhealthy 4.930793
Ġauto 0.6409155
Ġindustry 0.16364194
Ġwill 2.121267
Ġrequire 4.815997
Ġsensible 10.560562
Ġand 1.8171947
Ġsensitive 8.178384
Ġnegotiations 2.348359
Ġfrom 4.727065
Ġall 2.5085096
Ġsides 1.4754914
Ġinvolved 5.072467
. 0.52120256
ĠIn 3.6751795
Ġconclusion 4.740885
, 0.021019753
Ġthe 0.9349405
Ġannouncement 3.399117
Ġby 1.0164301
ĠBR 0.15968552
T 0.0007016272
ĠAutom 0.30133358
otive 0.0005360014
Ġis 1.9744607
Ġincredibly 6.6308837
Ġprecarious 8.531482
Ġnews 5.217516
Ġfor 0.8304322
Ġthe 0.99975705
ĠAmerican 4.850152
Ġauto 0.24360771
Ġindustry 0.19349574
, 1.9459778
Ġas 1.0878057
Ġit 0.43382782
Ġsuggests 3.7498507
Ġthe 1.9832592
Ġpossibility 1.7283111
Ġof 0.080902964
Ġunion 4.9055786
ized 1.1385647
Ġworkers 0.27389964
Ġearning 0.8034514
Ġless 0.35800055
Ġthan 0.084835924
Ġ$ 0.18719527
10 0.04154252
/ 5.553392
hour 0.32129607
. 1.3620689
ĠSuch 3.6629171
Ġnews 4.027543
Ġpresents 4.7365937
Ġa 0.9200108
Ġconsiderable 6.2454085
Ġchallenge 1.9135832
Ġto 0.7498987
ĠGeneral 2.8488908
ĠMotors 0.0011632163
Ġand 0.49802354
Ġits 1.9287584
Ġunion 3.8137207
Ġcounterparts 5.4400883
Ġin 1.7139503
Ġtheir 4.612347
Ġupcoming 4.9878173
Ġsalary 4.6262417
Ġnegotiations 0.17221023
Ġin 4.52778
Ġthe 0.27692565
Ġupcoming 3.2281733
Ġyears 0.2622758
. 0.123060405
ĠHowever 4.043197
, 0.0070965397
Ġit 1.9569622
Ġalso 0.44911942
Ġhighlights 3.8020813
Ġthe 0.40472358
Ġneed 1.8602703
Ġfor 0.42008096
Ġboth 3.3694727
Ġparties 1.376459
Ġto 0.08221799
Ġwork 1.6161379
Ġtogether 0.27423096
Ġin 2.3270426
Ġdeveloping 5.0351152
Ġstronger 5.0389214
, 3.4328673
Ġmutually 4.2793417
Ġbeneficial 0.25714687
Ġagreements 1.1520072
, 3.7779236
Ġcapable 8.223268
Ġof 0.016748095
Ġensuring 3.6807234
Ġthat 1.5537502
Ġworkers 1.5964739
bytes:\xe2\x80 2.148136
bytes:\x99 0.0005482874
Ġrights 2.61207
Ġand 1.4730384
Ġwages 1.6623071
Ġstay 5.3413086
Ġprotected 2.1509907
, 3.8614526
Ġwhile 2.2352817
Ġthe 2.8814225
Ġindustry 1.271731
Ġstays 5.3964663
Ġprofitable 2.4046593
Ġand 1.5419705
Ġcompetitive 1.2397381
. 0.34626698
