Def 8.8154745
ining 2.9562938
Ġethnicity 10.60047
Ġis 2.2372408
Ġa 1.4786764
Ġcontentious 4.5247383
Ġissue 0.7343142
Ġbecause 5.3342896
Ġthere 2.6958811
Ġare 0.65349174
Ġa 3.0170674
Ġnumber 1.3051753
Ġof 0.0054592625
Ġways 3.2974212
Ġin 2.2551455
Ġwhich 0.004382878
Ġit 1.7024796
Ġis 1.6994025
Ġdefined 1.1286469
, 1.8876545
Ġand 1.0559579
Ġit 2.741678
Ġis 0.78269625
Ġoften 2.5891356
Ġused 2.715963
Ġinterchange 2.5675414
ably 0.00024370644
Ġwith 0.53129685
Ġrace 1.0788301
Ġeven 7.601437
Ġthough 0.587889
Ġthey 2.4588668
Ġare 0.29967698
Ġnot 1.8209965
Ġthe 0.64035887
Ġsame 0.019411566
Ġthing 0.42548025
. 0.08998451
ĠIn 2.7842667
Ġa 3.2183492
Ġbroad 4.750394
Ġsense 0.07898629
Ġof 5.2640486
Ġthe 0.2287211
Ġterm 0.58818334
, 0.2551745
Ġethnicity 1.8362546
Ġis 0.56976193
Ġa 1.4071002
Ġterm 3.5058234
Ġwhich 3.722573
Ġrepresents 5.6344843
Ġsocial 4.894655
Ġgroups 2.5049465
Ġwith 3.6049209
Ġa 1.6877385
Ġshared 2.5402586
Ġhistory 2.0112138
, 0.84635043
Ġsense 8.5116415
Ġof 0.0068337675
Ġidentity 1.2471291
, 0.44938982
Ġgeography 6.1892085
Ġand 1.2348607
Ġcultural 1.9694633
Ġroots 4.385958
Ġwhich 3.9328122
Ġmay 2.899486
Ġoccur 7.0858555
Ġdespite 7.3154325
Ġracial 6.1708474
Ġdifference 5.0248427
. 0.36793542
ĠIt 2.6076493
Ġis 0.47802326
Ġoften 3.2093534
Ġused 0.73080677
Ġto 1.2012017
Ġdescribe 1.1422901
Ġthose 4.2926946
Ġwho 1.5470897
Ġare 1.3047581
Ġof 1.893546
Ġa 0.93935657
Ġminority 4.8678083
Ġin 2.5668411
Ġthe 2.4363046
Ġcountry 1.9572854
Ġthey 2.972997
Ġlive 0.5541722
Ġin 0.13355964
, 0.9232853
Ġhence 6.872476
Ġthe 1.0147761
Ġterm 0.94221306
Ġethnic 2.9341812
Ġminority 1.3381122
. 0.35124826
ĠThere 4.0711427
Ġare 0.44630766
Ġhigher 10.111354
Ġrates 3.8599374
Ġof 0.0379586
Ġmental 6.9043694
Ġillness 1.3605996
Ġamongst 2.4704986
Ġminority 4.5112247
Ġethnic 0.667318
Ġgroups 0.26107767
Ġin 2.1044428
ĠBritain 3.3301313
, 1.6231878
Ġspecifically 5.1755424
Ġdiagnosed 10.454894
Ġschizophrenia 5.5492435
Ġamongst 4.9182806
ĠAf 4.079949
ro 0.023346124
ĠCaribbean 4.3441405
Ġmen 4.2403693
Ġand 1.6860471
Ġsom 10.884872
at 1.4179442
ization 2.1922338
Ġamongst 1.5067009
Ġfemale 6.968022
ĠSouth 5.052864
ĠAsian 0.94080913
Ġmigrants 3.6039968
Ġ( 4.311441
Ann 8.755032
and 3.1056755
ale 0.21383394
, 1.390191
Ġ2000 3.697385
). 0.19418806
ĠThe 2.816532
Ġreasons 6.586559
Ġfor 0.43262598
Ġhigh 6.6120667
Ġrates 0.1953441
Ġof 0.05495811
Ġschizophrenia 2.533539
Ġamongst 2.3552139
ĠAf 0.91626614
ro 0.002903523
ĠCaribbean 0.056352798
Ġmen 0.45187992
Ġwill 6.922654
Ġbe 0.33654702
Ġexplored 1.787572
Ġfirst 7.7052636
. 0.925139
ĠThese 6.1864552
Ġstatistics 5.138327
Ġhowever 6.1116924
, 1.1661301
Ġmay 3.292813
Ġnot 1.3544171
Ġbe 0.64729613
Ġdue 5.671699
Ġto 0.10504201
Ġactual 6.6864004
Ġdifferences 2.9365945
Ġbut 3.9122126
Ġdue 3.366709
Ġto 0.012250741
Ġarte 11.5527315
fact 1.2182224
ual 0.5613926
Ġexplanations 6.2216883
. 1.4151769
ĠThe 2.1664271
Ġethnicity 6.1501966
Ġof 0.44589537
Ġthe 1.6057119
Ġpeople 3.1310003
Ġis 4.4431744
Ġoften 1.944286
Ġdetermined 4.73902
Ġby 0.3062107
Ġtheir 1.6942931
Ġplace 2.9393654
Ġof 0.027082514
Ġbirth 0.93475586
Ġeven 6.7057753
Ġif 0.6931375
Ġthis 2.7225935
Ġis 0.66045666
Ġnot 0.9315868
Ġwhere 5.196877
Ġthey 0.27684948
Ġhave 2.4500916
Ġspent 3.3906312
Ġmost 2.1186228
Ġof 0.021425113
Ġtheir 0.0052156122
Ġlives 0.82471514
. 0.3257943
ĠAlso 5.724925
, 0.38153297
Ġethnic 5.0712447
Ġgroup 3.644607
ings 3.2767835
Ġsuch 3.2357378
Ġas 0.0047061504
ĠBlack 4.19917
Ġand 2.1454253
ĠSouth 4.777224
ĠAsian 0.11719133
Ġare 1.7437102
Ġtoo 7.5972605
Ġgeneral 3.668357
Ġand 2.2494974
Ġhave 3.7435446
Ġinappropriate 8.027132
Ġboundaries 2.2561307
Ġbecause 4.4528575
Ġof 1.8223364
Ġdivisions 9.718306
Ġwithin 1.8336973
Ġthem 3.7551665
Ġ( 2.5576239
Naz 10.497656
roo 3.094176
, 0.48169473
Ġ1998 3.0140648
). 0.12166068
ĠThe 2.1768417
Ġdata 5.751728
Ġgathered 4.8043294
Ġabout 4.606802
Ġthese 3.1452217
Ġethnic 2.5943909
Ġgroup 3.9097714
ings 0.021398138
Ġis 1.6476781
Ġthen 4.4508777
Ġinterpreted 4.4058075
Ġas 2.1929116
Ġif 2.9552946
Ġthey 0.701546
Ġare 1.0512595
Ġa 2.073986
Ġhom 3.5188472
ogeneous 0.43072423
Ġgroup 0.7996509
Ġwhen 4.1989107
Ġin 0.7652697
Ġfact 0.43515548
Ġthey 1.0509272
Ġare 0.33896786
Ġheter 3.861834
ogeneous 0.019232055
Ġgroups 1.8099197
. 1.2482735
ĠThey 5.2382116
Ġare 0.9002422
Ġheter 3.9123437
ogeneous 0.028521111
Ġbecause 0.42857176
Ġwithin 5.6058683
Ġthe 1.9580969
Ġclassification 7.800244
Ġthere 3.6523085
Ġare 0.38213277
Ġdifferences 2.7079391
Ġof 3.280122
Ġreligion 5.651871
, 0.27510366
Ġclass 4.810156
, 0.5301795
Ġculture 3.4759955
, 0.72430724
Ġgeographical 4.443432
Ġlocation 0.60613567
Ġand 0.8516533
Ġso 2.1025565
Ġon 0.13279396
Ġ( 2.7329438
Naz 2.4554536
roo 0.0014193129
, 0.03787886
Ġ1998 0.038565144
). 0.08191655
ĠAss 8.404366
um 2.0562754
ptions 0.0099500455
Ġand 3.2043922
Ġgeneral 3.9746106
isations 1.159937
Ġabout 1.9022285
Ġthese 2.610799
Ġgroups 0.595211
Ġshould 4.99647
Ġtherefore 2.2457464
Ġnot 1.791842
Ġbe 0.07012583
Ġmade 1.2314379
Ġwithout 2.417772
Ġsome 3.596193
Ġexplanation 4.5682344
Ġas 2.8604705
Ġto 0.29634497
Ġthe 2.2787066
Ġorigin 3.649556
Ġof 0.24916467
Ġthe 0.61656874
Ġdata 4.471339
. 0.68930715
ĠThe 1.933201
Ġlink 8.055787
Ġbetween 0.1531097
Ġethnicity 1.62406
Ġand 0.047733866
Ġmental 0.59932387
Ġillness 0.87956136
Ġis 0.841445
Ġa 3.0190248
Ġhistorical 7.1292095
Ġone 0.46557435
, 1.8182963
Ġnot 3.8794656
Ġa 1.0591207
Ġrecent 3.3874757
Ġphenomenon 3.7077632
, 2.5248244
Ġbecause 3.8391914
Ġthere 2.768097
Ġwas 1.695294
Ġa 1.1732149
Ġstrong 3.5391219
Ġmedical 6.387468
Ġtradition 3.7841349
Ġthat 2.4163432
Ġbelieved 2.3438723
Ġbrains 10.563164
Ġof 3.1082997
Ġblack 3.2946157
Ġpeople 0.65644133
Ġwere 0.561363
Ġinferior 3.6724997
Ġto 0.82099086
Ġbrains 3.9357657
Ġof 0.01775007
Ġwhite 0.15945697
Ġpeople 0.115038075
Ġ( 1.329395
F 3.898717
ernand 5.425505
o 1.4181241
Ġcited 11.484961
Ġin 0.59015787
ĠPilgrim 12.65223
Ġand 3.4120462
ĠRogers 7.6672616
, 0.16893627
Ġ1999 3.0569534
: 4.2029133
65 6.487787
). 0.1484341
ĠThis 2.4589674
Ġmedical 4.9799275
Ġtradition 0.7038209
Ġhas 2.4968314
Ġdeveloped 6.578108
Ġand 2.7070918
Ġnow 5.0264378
Ġincludes 2.89637
Ġa 1.9587145
Ġnumber 2.8279445
Ġof 0.0037031397
Ġother 3.5743883
Ġexplanations 4.1910877
Ġas 2.9839094
Ġto 0.24990502
Ġwhy 0.30570987
Ġethnic 5.1136985
Ġminorities 1.8420441
Ġhave 1.6354934
Ġpoorer 5.0002995
Ġhealth 2.19633
Ġgenerally 7.2216325
Ġand 1.9320601
Ġthese 6.3985295
Ġare 1.6754156
Ġas 5.35989
Ġa 2.6911607
Ġresult 0.35354897
Ġof 0.6255051
Ġgenetics 4.8784533
, 0.7475282
Ġmigration 5.801111
, 0.5832357
Ġmaterial 9.205778
Ġdisadvantage 5.253339
Ġ( 3.4700198
class 8.250391
), 2.0563915
Ġcultural 2.9376261
Ġand 2.601132
Ġracism 10.874531
Ġ( 0.77022547
P 2.4989288
il 0.5023822
grim 0.04907846
Ġand 0.12172316
ĠRogers 0.01939941
, 0.03764928
Ġ1999 0.009103021
). 1.8491584
ĠIn 2.765489
Ġthis 2.535491
Ġessay 5.029242
ĠI 1.7753826
Ġam 2.6648307
Ġgoing 1.0171075
Ġto 0.003597672
Ġdiscuss 2.7668037
Ġa 3.0324621
Ġnumber 1.119809
Ġof 0.0029843457
Ġdifferent 2.317925
Ġapproaches 5.1550636
Ġand 3.538022
Ġexplanations 4.036731
Ġas 3.1201782
Ġto 0.016565915
Ġwhy 0.22751985
Ġethnic 2.2495363
Ġminorities 0.2789504
, 4.798946
Ġespecially 1.86357
ĠAf 0.6575683
ro 0.0011683488
- 3.7616408
Car 0.050585605
ib 0.006679604
bean 0.18636578
's 9.093719
, 0.9924404
Ġare 1.3124224
Ġover 6.4844456
Ġrepresented 3.123407
Ġin 0.20163472
Ġmental 0.9634892
Ġhealth 0.12178859
Ġservices 1.0427113
. 0.9242041
ĠI 2.0251791
Ġwill 0.95299715
Ġalso 1.9777498
Ġexplore 3.275955
Ġthe 0.7589793
Ġrelationship 3.668216
Ġbetween 0.12534298
ĠAsian 7.915421
Ġwomen 3.6630538
Ġand 0.44354543
Ġsom 9.974899
at 0.23707774
ization 0.03286668
. 2.0366077
ĠHarrison 14.065922
Ġet 2.8078012
Ġal 0.024029808
Ġcarried 13.946637
Ġout 0.02117316
Ġa 0.43512574
Ġprospective 6.211058
Ġstudy 0.44029453
Ġof 1.3798046
ĠAf 3.6674562
ro 0.0042804508
- 0.91721994
Car 0.022141498
ib 0.0023998371
bean 0.05786238
Ġmales 4.180519
Ġwho 2.4821482
Ġhad 1.2918212
Ġbeen 1.4420128
Ġreferred 2.765124
Ġto 0.47189552
Ġmental 1.1526031
Ġhealth 0.045730043
Ġservices 0.11772841
Ġin 1.6296477
ĠNottingham 5.6910167
Ġ( 2.9757764
1988 5.6082377
). 1.0714682
ĠThey 1.2550609
Ġused 3.9553123
Ġinterviews 5.0427957
Ġto 0.94928056
Ġtry 5.3452024
Ġand 0.6750675
Ġdetermine 1.6934391
Ġthe 1.0964108
Ġexact 6.0085316
Ġnumber 2.3680341
Ġand 3.9124873
Ġthe 3.337497
Ġreasons 2.0042915
Ġfor 0.43898454
Ġincreased 7.9265304
Ġrates 0.94911826
Ġof 0.05414831
Ġschizophrenia 1.4054815
Ġamong 2.0078557
Ġthis 1.8841288
Ġparticular 4.0474896
Ġgroup 0.42895237
Ġ( 1.9071801
H 0.3115388
arrison 0.029949985
Ġet 0.14306787
Ġal 0.011373545
, 0.5088251
Ġ1988 1.4154596
). 0.24598867
ĠThey 2.3035524
Ġfound 0.7629607
Ġthat 0.2623343
Ġschizophrenia 5.0434895
Ġrates 2.5510695
Ġwere 1.1144094
Ġaround 5.4290805
Ġ13 4.211652
% 0.8043227
Ġhigher 1.3923324
Ġthan 3.4428594
Ġthe 1.0981567
Ġrest 4.3000164
Ġof 0.010429361
Ġthe 0.059866596
Ġpopulation 0.6677991
Ġof 4.9630437
ĠNottingham 2.0519836
, 1.6881515
Ġespecially 4.9030066
Ġamongst 1.8928338
Ġsecond 9.703134
Ġgeneration 0.46904188
ĠBritish 4.6583815
Ġborn 3.1946633
Ġ( 4.8082743
H 1.4440902
arrison 0.025121616
Ġet 0.120583735
Ġal 0.022227911
, 0.10094942
Ġ1988 0.03648194
). 0.7033136
ĠThe 1.8927711
Ġpsychological 7.723089
Ġliterature 4.4386353
Ġoffers 6.255529
Ġtwo 4.7527657
Ġexplanations 2.489962
Ġas 1.8039113
Ġto 0.0075094425
Ġwhy 0.049460676
ĠAf 2.3146515
ro 0.002033526
- 0.304237
Car 0.0069761886
ib 0.0027848694
bean 0.07360358
Ġmen 1.6537551
Ġare 0.80121166
Ġover 1.5364513
Ġrepresented 0.3467125
Ġwith 6.573044
Ġschizophrenia 1.7729338
Ġand 3.850067
ĠAsians 12.624085
Ġare 1.3842626
Ġunder 1.2529005
Ġrepresented 0.66257566
. 0.9714754
ĠThe 0.8365296
Ġfirst 0.101177186
Ġexplanation 1.1297759
Ġlooks 7.32141
Ġat 0.14485662
Ġcultural 4.7124863
Ġdifference 3.6868339
Ġand 1.1277608
Ġexplains 4.6434555
Ġthe 2.0423129
Ġunder 4.530889
Ġrepresentation 0.45042935
Ġof 0.5060609
ĠAsians 1.9922199
Ġbecause 3.657971
Ġof 1.0399908
Ġlow 5.8721204
Ġlevels 1.6512891
Ġof 0.007583612
Ġdistress 11.945181
Ġ( 3.4417796
P 3.2300422
il 0.56314534
grim 0.03336838
Ġand 0.14566225
ĠRogers 0.018366572
, 0.027625928
Ġ1999 0.016927943
). 0.7594576
ĠLow 6.430791
Ġlevels 0.13783982
Ġof 0.0029825517
Ġdistress 0.11164034
Ġare 1.8751954
Ġa 1.8672882
Ġresult 3.09917
Ġof 0.010202018
Ġfatal 12.347099
istic 2.3289406
Ġattitudes 2.219441
Ġand 1.5565168
Ġpsychological 6.2044206
Ġrobust 11.9187355
ness 0.19438581
Ġwhich 2.6291497
Ġare 1.3253897
Ġrelated 5.5837345
Ġto 0.047253907
Ġculture 5.8690147
. 1.650452
ĠAlso 5.0547714
, 0.31471607
Ġin 3.7558653
ĠAsian 6.0818605
Ġculture 1.9685054
Ġthere 2.0004575
Ġis 0.35461476
Ġoften 4.0016785
Ġa 0.7560948
Ġstigma 5.2829256
Ġattached 1.4352278
Ġto 0.03926237
Ġmental 0.9663298
Ġhealth 1.4396229
Ġservices 1.6433692
Ġso 4.8867006
Ġthey 3.2831018
Ġare 0.7492617
Ġaccessed 8.507518
Ġless 3.3697765
Ġby 2.4504535
Ġthem 6.6537123
Ġ( 1.9679368
P 0.69743663
il 0.043272194
grim 0.005435949
Ġand 0.0271911
ĠRogers 0.0037677553
, 0.011051
Ġ1999 0.006202385
). 0.13106285
ĠThe 1.2609943
Ġsecond 0.18172735
Ġpsychological 7.8844256
Ġexplanation 0.08542017
Ġis 1.0327028
Ġvulnerability 12.462183
Ġwhich 4.60382
Ġis 1.1211025
Ġbrought 7.2029214
Ġon 2.8090355
Ġby 0.1880164
Ġan 4.115634
Ġadverse 4.5951576
Ġenvironment 2.297982
, 2.2958689
Ġsocial 4.8387413
Ġdeprivation 4.0941553
, 0.9243325
Ġunf 9.862854
avour 0.21342884
able 0.012738403
Ġconditions 4.196311
, 1.9590077
Ġfinancial 5.3111396
Ġdifficulties 2.2726002
Ġand 0.7460831
Ġdiscrimination 4.6296887
Ġ( 0.9306127
P 0.53839827
il 0.017414555
grim 0.0007242328
Ġand 0.01414677
ĠRogers 0.0045335717
, 0.014367331
Ġ1999 0.0054720878
). 0.044283744
ĠEthnic 5.754104
Ġminorities 0.4904722
Ġfeature 9.905004
Ġheavily 3.0985773
Ġin 0.21051729
Ġlow 6.001972
Ġsocio 1.7677602
Ġeconomic 2.2029426
Ġgroups 3.095286
Ġand 1.6913849
Ġare 2.0332694
Ġoften 2.3857713
Ġfrom 6.2145357
Ġlower 2.639962
Ġclasses 3.9444842
Ġwhich 3.6258664
Ġcan 3.172568
Ġcause 3.2501307
Ġsome 5.357361
Ġof 2.1360214
Ġthe 0.405299
Ġfactors 3.6515415
Ġabove 3.2553084
Ġ( 3.141676
Ann 6.3190155
and 0.00326429
ale 0.00014146294
, 0.07460388
Ġ2000 0.055188175
). 0.14762795
ĠThe 1.9403678
ĠBlack 6.6419253
ĠReport 10.593398
Ġcame 7.7694626
Ġto 1.8503836
Ġthe 0.5945823
Ġconclusion 0.61361486
Ġthat 0.038228508
Ġmaterial 11.969798
Ġfactors 4.94421
Ġwere 2.0804605
Ġmostly 5.895207
Ġto 1.2910612
Ġblame 0.023077525
Ġfor 0.5033705
Ġthe 0.6818717
Ġclass 10.141014
Ġinequalities 3.9673924
Ġin 1.0853689
Ġhealth 3.9886959
Ġand 1.910664
, 5.828671
Ġgiven 5.2247458
Ġthe 0.45993882
Ġdata 6.1319804
Ġthat 3.445408
Ġsuggests 4.955112
Ġethnic 5.561782
Ġminorities 0.35957155
Ġwere 4.2472215
Ġmore 2.4424028
Ġlikely 0.40107867
Ġto 0.053196
Ġbe 0.88031536
Ġin 2.5657845
Ġa 4.0242214
Ġlower 1.3787848
Ġclass 3.153267
, 1.3012768
Ġthis 1.615519
Ġsuggests 3.655467
Ġthat 0.44871706
Ġit 3.2523437
Ġis 0.63566387
Ġrelevant 8.513302
Ġto 0.51148045
Ġethnic 8.008465
Ġinequalities 6.5555396
Ġin 0.97155404
Ġhealth 1.4272952
Ġ( 1.2330414
Naz 7.623558
roo 0.0016025159
, 0.021014886
Ġ1998 0.03763183
). 0.100638114
ĠAf 4.678169
ro 0.002331248
- 0.26158994
Car 0.014346169
ib 0.0023265867
bean 0.014131719
's 1.688905
Ġare 0.9259225
Ġthe 3.295499
Ġethnic 5.1267195
Ġgroup 0.49077564
Ġwhich 2.524597
Ġare 1.7843062
Ġmost 1.5841929
Ġlikely 0.81591266
Ġto 0.013911996
Ġhave 1.7630274
Ġcontact 7.2688417
Ġwith 0.03263375
Ġmental 1.8833429
Ġhealth 0.01592673
Ġservices 0.20849337
Ġthrough 5.878486
Ġthe 1.6643885
Ġpolice 4.7338715
, 1.4140687
Ġcourts 3.8567514
Ġand 0.68959236
Ġprison 4.176552
Ġ( 1.5563642
Ann 1.7834586
and 0.0027102164
ale 0.00019714465
, 0.017398544
Ġ2000 0.03358243
). 0.15508793
ĠThe 1.8716824
Ġmajority 3.6669288
Ġof 0.036778223
Ġmental 4.1202064
Ġhealth 0.09058937
Ġpatients 4.0994005
Ġenter 7.5070286
Ġthe 1.5060382
Ġsystem 2.4619126
Ġvoluntarily 6.1211076
, 1.6209744
Ġin 3.9796672
Ġthe 2.4484897
Ġ1980 7.4192595
's 0.8005107
Ġapproximately 6.442015
Ġa 4.458955
Ġ5 8.098919
ĠSome 19.034784
Ġresearch 3.7958586
Ġinto 3.7267697
Ġsection 10.895959
Ġ136 6.6736197
Ġof 1.0568262
Ġthe 0.053373728
ĠMental 0.39423096
ĠHealth 0.04562785
ĠAct 0.027164396
, 3.0294144
Ġwhich 1.3689383
Ġallows 2.72882
Ġthe 1.9447973
Ġdetention 4.5954742
Ġof 0.15384984
Ġa 3.1335402
Ġperson 0.5105851
Ġfor 1.7982436
Ġup 1.105255
Ġto 0.0040490534
Ġ72 4.5881047
Ġhours 0.076899655
Ġin 2.753082
Ġa 1.6525675
Ġplace 5.954528
Ġof 0.42007253
Ġsafety 3.1420882
, 1.1475792
Ġhas 2.3040872
Ġshown 1.8234043
Ġthat 0.23430538
ĠAf 3.670411
ro 0.0037094217
- 0.17289779
Car 0.014781373
ib 0.002681233
bean 0.035921946
Ġmen 1.2707237
Ġare 0.8996191
Ġtwo 5.441779
Ġand 1.9782395
Ġa 0.10788079
Ġhalf 0.025246494
Ġtimes 0.02396778
Ġas 2.5273497
Ġlikely 0.0048815734
Ġto 0.2847299
Ġbe 0.28626722
Ġdetained 0.49614623
Ġthan 1.2854757
Ġwhite 2.7412996
Ġmen 0.24380013
Ġand 3.1541636
Ġthen 8.038754
Ġmore 4.9476237
Ġlikely 2.4682236
Ġto 0.13431258
Ġbe 0.26599893
Ġput 5.374187
Ġin 0.3985731
Ġa 1.5680563
Ġpsychiatric 2.285964
Ġhospital 1.1241031
Ġ( 0.7417094
P 2.4145339
il 0.27594015
grim 0.00221517
Ġand 0.055257775
ĠRogers 0.011292644
, 0.019144138
Ġ1999 0.026702465
). 0.12030074
ĠThe 1.6594005
Ġreason 3.1356149
Ġthey 4.8633165
Ġare 0.22906649
Ġmost 6.9859023
Ġlikely 0.046159897
Ġto 0.024578039
Ġcome 5.7738757
Ġinto 1.4249053
Ġcontact 1.3048835
Ġwith 0.015739901
Ġthe 0.93934864
Ġmental 2.917811
Ġhealth 0.0068736156
Ġsystem 0.7580242
Ġthrough 4.3931007
Ġthe 0.16256891
Ġcriminal 4.731317
Ġjustice 0.053456347
Ġsystem 0.06522752
Ġis 0.22341222
Ġbecause 0.5112878
Ġthey 1.2316688
Ġare 0.50120425
Ġmore 1.8968217
Ġlikely 0.08703883
Ġto 0.03429851
Ġbe 0.6010536
Ġstopped 6.688129
Ġon 3.5262904
Ġthe 0.24915986
Ġstreets 2.0326087
Ġand 1.402289
Ġtheir 4.234284
Ġbehaviour 1.9988369
Ġis 0.86278814
Ġoften 2.5701652
Ġinterpreted 3.8608863
Ġby 2.4084578
Ġother 3.3788536
Ġethnic 5.9410357
Ġgroups 0.5715791
Ġas 0.8127946
Ġinsane 9.155665
Ġor 2.1474187
Ġdangerous 2.1749368
Ġ( 0.86036325
Ann 1.9018582
and 0.0036338044
ale 0.00022731101
, 0.011686543
Ġ2000 0.022467209
). 0.044957843
ĠThe 1.757075
Ġpolice 3.520012
Ġact 5.809777
Ġas 1.5683286
Ġa 0.8021749
Ġ' 5.7252927
con 7.3709636
vey 3.5202315
or 0.24196796
Ġbelt 0.12600547
Ġfor 4.1183114
Ġcommunity 5.875141
Ġprejudice 8.702571
' 0.91700476
Ġ( 1.0666598
P 1.3979892
il 0.074958384
grim 0.0007647328
Ġand 0.024659406
ĠRogers 0.006065169
, 0.012160051
Ġ1999 0.013385646
: 2.4798548
Ġ70 6.418108
) 1.313996
Ġand 0.7880267
Ġthis 2.3528118
Ġis 1.2848095
Ġknown 6.484166
Ġas 0.52546847
Ġtransmitted 13.832275
Ġprejudice 3.1113183
, 2.7112465
Ġthey 7.138455
Ġcreate 5.9371915
Ġsuspicion 8.838927
Ġin 2.8128574
Ġthe 0.65841824
Ġpublic 3.6922822
Ġwhich 3.1507466
Ġin 3.9885128
Ġturn 0.048404507
Ġmeans 6.407712
Ġthe 3.0153039
Ġpublic 1.606624
Ġare 2.6191843
Ġmore 0.8961706
Ġlikely 0.112347156
Ġto 0.009222124
Ġreport 3.163825
Ġ' 6.5993743
mad 6.239523
' 1.3152722
Ġbehaviour 1.7435243
Ġin 3.2059066
ĠAf 3.2206292
ro 0.0011208493
- 0.11770005
Car 0.009421444
ib 0.0015545781
bean 0.020722626
's 0.83850783
. 1.2446196
ĠBlack 5.8930783
Ġdefendants 9.588998
Ġare 1.18386
Ġclass 8.605531
ed 0.015320924
Ġas 0.17248018
Ġmentally 1.7945288
Ġvulnerable 6.30861
, 2.2227457
Ġare 6.178628
Ġless 3.0987406
Ġlikely 0.076622844
Ġthan 4.1518264
Ġwhite 0.95093495
Ġpeople 3.0573206
Ġto 0.07354789
Ġbe 0.9312603
Ġgiven 2.7108579
Ġbail 2.8864625
Ġby 5.017646
Ġthe 0.35731253
Ġcriminal 6.350109
Ġjustice 0.9116884
Ġsystem 0.037127234
Ġand 0.68949825
Ġare 0.77046543
Ġmore 0.8409053
Ġlikely 0.023456685
Ġto 0.028638564
Ġreceive 3.5093415
Ġcompulsory 6.8939013
Ġpsychiatric 1.8162856
Ġtreatment 0.23973088
Ġ( 0.54823947
Brown 6.280659
Ġcited 5.1950116
Ġin 0.013784898
ĠPilgrim 1.077579
Ġand 0.014495409
ĠRogers 0.0048716315
, 0.011251894
Ġ1999 0.012431292
: 0.40928867
69 3.4533775
). 0.14566803
ĠFive 9.048816
Ġmain 5.025582
Ġreasons 1.6059613
Ġfor 1.0879539
Ġthis 1.2411602
Ġhave 2.6578076
Ġbeen 0.03328155
Ġidentified 1.6752212
. 2.251321
ĠThe 1.8029996
Ġfirst 0.32233694
Ġis 0.8609741
Ġdue 4.636475
Ġto 0.007109084
Ġthe 0.7353421
Ġculture 5.04161
Ġof 0.5677577
Ġblack 3.4663365
Ġpeople 1.0648985
, 1.6664762
Ġespecially 3.778167
Ġmen 4.1865005
. 1.836362
ĠThey 2.1274803
Ġtend 3.6192224
Ġto 0.037155937
Ġexpress 6.7931256
Ġdistress 6.4391603
Ġin 2.2666478
Ġa 1.3097333
Ġculturally 5.3860373
Ġdistinctive 7.6326723
Ġway 0.35634524
Ġwhich 2.112455
Ġmakes 2.5369716
Ġthem 0.70115125
Ġmore 1.1869146
Ġnoticeable 6.680622
Ġto 1.7011569
Ġthe 0.5892516
Ġpublic 1.6527517
Ġand 1.6771308
Ġpolice 6.363689
. 0.7962585
ĠThis 2.234448
Ġin 4.2302785
Ġturn 0.03363279
Ġmeans 2.2235975
Ġthat 0.79219866
Ġhigher 8.484083
Ġlevels 1.9451774
Ġof 0.006352695
Ġsupposed 13.135506
Ġmental 1.4584631
Ġillness 0.6098202
Ġcome 5.474452
Ġto 1.0317276
Ġlight 0.71476936
Ġdue 5.118489
Ġto 0.0051196907
Ġthe 1.2734805
Ġcriminal 8.166054
Ġjustice 0.49646658
Ġsystem 0.034245957
Ġ( 1.8019838
G 6.4311466
idd 4.023915
ens 0.26811886
, 0.5695367
Ġ1993 3.0404847
). 0.39916798
ĠThe 0.7098419
Ġsecond 0.099681415
Ġreason 0.8109219
Ġmay 5.9755507
Ġbe 0.21443461
Ġbecause 2.4160557
Ġof 0.935882
Ġtheir 3.429054
Ġlow 3.7550957
Ġlevel 1.8338833
Ġof 0.014769395
Ġregistration 9.7924795
Ġwith 2.136346
Ġprimary 9.464968
Ġcare 0.7281032
. 2.1996205
ĠK 10.495457
off 6.0794888
man 2.904029
Ġet 1.3268648
Ġal 0.0066801435
Ġcarried 5.1346292
Ġout 0.0027324513
Ġa 0.2515664
Ġone 7.459236
Ġday 5.311995
Ġsurvey 1.697891
Ġin 1.7869319
Ġthe 2.4539378
ĠNorth 3.986611
Ġand 5.2031527
ĠSouth 1.8044963
ĠThames 7.907223
Ġregion 2.6701815
Ġto 3.7295957
Ġanalyse 5.599639
Ġthe 0.50593436
Ġclinical 6.7179003
Ġand 2.883173
Ġdemographic 3.0420065
Ġdata 2.8998
Ġabout 3.6773229
Ġpsychiatric 4.5385942
Ġpatients 1.1223743
Ġin 1.4897643
Ġthis 2.720266
Ġarea 0.47672242
Ġ( 0.99446255
1997 5.281422
). 0.18620399
ĠThe 1.2442402
Ġresearchers 4.7791595
Ġfound 0.386149
Ġthat 0.13330679
Ġmore 4.3489347
ĠBlack 6.0015798
Ġpatients 1.7646449
Ġadmitted 5.3930616
Ġto 0.20072289
Ġwards 7.5560093
Ġwere 1.7117647
Ġnot 3.3992498
Ġregistered 1.612383
