The 2.5806708
Ġtens 11.674476
ile 3.9061558
Ġtest 6.763134
Ġconsists 4.9830985
Ġof 0.056303747
Ġsteadily 11.360605
Ġpulling 3.8858116
Ġa 0.9776155
Ġmaterial 4.9113903
Ġsample 6.688668
Ġwith 2.9241972
Ġa 0.706889
Ġtens 4.066341
ile 0.0163788
Ġload 2.5422468
, 2.7797081
Ġwhich 3.0364034
Ġincreases 5.782136
Ġat 4.4317374
Ġa 0.6783481
Ġconstant 1.2112042
Ġrate 0.07793582
, 2.0227678
Ġuntil 1.6237901
Ġthe 0.58684945
Ġsample 2.6522853
Ġbrakes 10.441107
. 0.9556808
ĠTens 5.5120254
ile 0.0105233835
Ġtests 1.4217318
Ġare 0.7294476
Ġused 1.6407827
Ġto 0.56971794
Ġobtain 6.285378
ĠStress 11.714811
- 1.9293082
St 2.4891865
rain 1.8018525
Ġcor 10.683122
ves 9.272759
Ġand 2.0763078
Ġthen 8.769442
Ġobtain 7.3545017
Ġvalues 5.649212
Ġsuch 5.4025908
Ġas 0.048496295
Ġyield 5.296381
Ġstress 1.4837847
, 0.9286952
Ġultimate 4.8661685
Ġtens 1.7383473
ile 0.002358134
Ġstrength 0.09933371
Ġand 1.6079549
ĠYoung 6.6822505
's 0.41088784
Ġmod 0.056998856
ulus 0.025403485
Ġfor 2.7868817
Ġa 1.9824339
Ġgiven 1.4192071
Ġmaterial 0.7876211
. 0.39634097
ĠThe 1.8292404
Ġstress 2.5228891
- 0.44659603
str 0.99535
ain 0.0026145945
Ġcurve 2.4941483
Ġalso 4.924504
Ġshows 2.074675
Ġthe 0.5906196
Ġelastic 4.279044
Ġand 3.8520734
Ġplastic 2.6928315
Ġbehaviour 5.222249
Ġof 0.21576099
Ġthe 0.29975164
Ġmaterial 0.4239307
. 0.86901766
ĠThe 1.707109
Ġtest 3.3142495
Ġgives 6.3444
Ġa 1.1637102
Ġcurve 6.044467
Ġof 1.7676286
Ġload 5.5986037
Ġagainst 5.3298674
Ġextension 9.229328
, 1.3993797
Ġwhich 1.3600951
Ġcan 2.124789
Ġthen 2.7115233
Ġbe 0.026672041
Ġconverted 3.6000211
Ġinto 0.84863067
Ġa 1.1488671
Ġstress 1.834327
Ġvs 5.4948826
Ġstrain 4.140915
Ġcurve 0.21824105
. 0.692749
ĠThe 1.4717494
Ġcurves 6.500111
Ġwill 4.4397106
Ġhowever 7.911386
Ġbe 1.5805631
Ġexactly 8.022701
Ġthe 0.32836998
Ġsame 0.022172026
, 2.4252722
Ġonly 3.9617832
Ġthe 0.67972535
Ġvalues 4.5098867
Ġof 1.3086267
Ġthe 1.1058322
Ġproperties 6.5416074
Ġwill 1.3026265
Ġdiffer 2.5894096
. 0.35151765
ĠThe 1.9279541
Ġtens 2.7512863
ile 0.0027206768
Ġtest 0.95366526
Ġmachine 8.737608
Ġto 8.039583
Ġbe 1.7662112
Ġused 0.2062834
Ġis 1.7345476
Ġthe 2.108344
ĠT 3.2276094
ets 6.852249
ometric 13.165465
. 3.3856242
ĠTwo 7.0281796
Ġmain 4.634458
Ġregions 9.023517
Ġof 0.96623373
Ġbehaviour 8.447031
Ġcan 2.1979
Ġoccur 6.348683
Ġwhen 2.6053464
Ġa 2.195664
Ġmaterial 0.8294211
Ġis 0.34053516
Ġunder 3.4725995
Ġtens 2.6453817
ile 0.0033690059
Ġloading 2.8394754
: 0.95594263
ĠElastic 6.3960214
Ġde 3.5456598
formation 0.010955725
Ġis 3.4403577
Ġshown 4.9625278
Ġas 2.7737327
Ġthe 1.5166893
Ġlinear 5.940003
Ġregion 4.1985326
Ġof 2.0439656
Ġa 3.2557693
Ġstress 0.92490846
- 0.24509104
str 0.09731808
ain 0.001318025
Ġcurve 0.10493
. 1.3197021
ĠThis 2.0243652
Ġis 1.0755358
Ġwhen 4.35979
Ġchemical 10.851705
Ġbonds 2.0865448
Ġin 2.95061
Ġa 2.4742517
Ġmaterials 5.271969
Ġmicro 7.7375083
st 0.050817993
ructure 0.0003116732
Ġare 1.12109
Ġstretched 3.4834888
, 2.185855
Ġand 1.5693729
Ġnot 6.0331793
Ġbroken 2.8367343
. 0.46292892
ĠIf 4.408464
Ġa 2.2146728
Ġload 4.9559627
Ġis 0.18221457
Ġremoved 5.4891825
Ġthe 2.4876494
Ġmaterial 3.4117246
Ġwill 1.1020718
Ġregain 4.903681
Ġ100 9.760675
% 0.091259904
Ġof 0.60310906
Ġit 3.7260056
's 0.15598652
Ġoriginal 0.6878317
Ġcharacteristics 6.4042397
Ġi 8.662706
. 0.0056234887
e 0.005722936
. 0.074811205
Ġlength 5.4836116
. 2.445885
ĠPlastic 2.355646
Ġde 0.20729959
formation 0.0019715312
Ġoccurs 1.1679109
Ġafter 5.3743744
Ġthe 1.2964872
Ġyield 7.399858
Ġpoint 5.072265
Ġon 5.1526775
Ġa 1.2323453
Ġstress 2.2872076
- 0.050893694
str 0.04404041
ain 0.001129683
Ġcurve 0.036117207
. 1.0849732
ĠThis 1.1437175
Ġoccurs 1.9970787
Ġwhen 0.40207165
Ġchemical 3.9433656
Ġbonds 0.10644035
Ġare 1.6380298
Ġbroken 1.4571215
Ġand 1.528464
Ġatoms 8.162206
Ġliterally 9.582886
Ġmove 2.9207203
Ġalong 3.7752287
Ġone 6.553199
Ġspace 6.1891794
Ġthen 7.8103867
Ġreturn 4.211183
Ġto 0.14237319
Ġstable 9.80258
Ġconfiguration 5.524298
Ġwith 4.60749
Ġthe 1.2132533
Ġnew 3.5118139
Ġneighbour 9.689547
. 0.83145225
ĠThis 1.7791339
Ġoccurs 3.104523
Ġas 3.8243349
Ġa 0.8451391
Ġdisl 10.23815
ocation 0.0111526195
Ġmoves 3.8274596
Ġalong 2.1295207
Ġa 0.9782556
Ġslip 9.049557
Ġplane 1.194717
. 0.96288615
ĠOnce 5.346253
Ġplastic 6.1247597
Ġde 0.112677075
formation 0.0049669887
Ġhas 1.165542
Ġoccurred 0.31436077
Ġthe 1.3259803
Ġmaterial 0.6544434
Ġcannot 4.529953
Ġregain 4.4470673
Ġ100 5.3430767
% 0.044379383
Ġof 0.24191347
Ġits 0.723416
Ġoriginal 0.20359136
Ġcharacteristics 1.7123162
, 1.938058
Ġalthough 4.9707847
Ġit 0.8383241
Ġwill 1.64267
Ġtry 7.041872
. 1.9715861
ĠPlastic 4.515363
Ġde 0.22239442
formation 0.007964261
Ġis 1.148666
Ġsometimes 5.159708
Ġvery 3.9893315
Ġvisible 4.112502
Ġduring 4.815033
Ġtens 2.5099926
ile 0.0056654476
Ġtesting 0.7830317
Ġas 2.935837
Ġa 2.0037308
Ġphenomenon 6.291826
Ġcalled 1.8980697
Ġ' 2.7012317
neck 8.355115
ing 1.6449939
' 1.7094344
Ġoccurs 1.6222408
. 0.6903815
ĠThis 1.2816292
Ġis 0.8307766
Ġwhen 1.1753838
Ġthe 0.87618333
Ġcross 6.5885215
- 0.5502201
sectional 0.25860104
Ġarea 0.66305864
Ġof 0.20150872
Ġthe 0.8259595
Ġsample 3.056343
Ġbegins 6.4496045
Ġto 0.013471066
Ġdecrease 1.9152772
, 1.7598467
Ġnormally 7.045925
Ġtowards 4.9894333
Ġthe 0.09176146
Ġmiddle 3.8115387
Ġof 0.48024905
Ġthe 0.067292176
Ġsample 1.411793
. 0.6976562
ĠThis 1.8903644
Ġis 1.1556729
Ġwhere 4.3617997
Ġthe 0.50927305
Ġdis 8.269981
loc 0.036832023
ations 0.040596183
Ġare 2.3617198
Ġconcentrated 5.189121
, 1.4820217
Ġfracture 11.635531
Ġwill 4.0936766
Ġoccur 1.0749246
Ġin 3.199962
Ġthis 1.6107703
Ġregion 1.0705334
Ġperpendicular 10.553454
Ġto 0.013844427
Ġthe 0.050521653
Ġapplied 7.033909
Ġload 0.651748
. 0.63307595
ĠThree 8.935595
Ġproperties 5.442407
Ġthat 2.8338041
Ġcan 1.295019
Ġbe 0.22674991
Ġshown 6.0184407
Ġusing 3.6801
Ġstress 3.5050275
- 0.12238344
str 0.07060916
ain 0.0016152328
Ġcurves 0.945939
Ġare 0.39655444
Ġduct 7.309182
ility 0.049229663
, 0.11535322
Ġstrength 2.6710007
Ġand 0.26109192
Ġstiffness 2.9057658
. 0.15297668
ĠD 1.8006245
uct 0.003221176
ility 0.010198587
Ġis 0.7634144
Ġthe 0.70005536
Ġability 1.0857852
Ġof 0.33361477
Ġa 0.7123702
Ġmaterial 0.14596602
Ġto 0.03185857
Ġsustain 5.734923
Ġlarge 5.7688313
Ġamounts 3.4445689
Ġof 0.0055616912
Ġplastic 7.4707255
Ġde 0.2617539
formation 0.0021254502
. 0.8293034
ĠA 2.9159763
Ġbrittle 5.802245
Ġmaterial 0.16904552
Ġis 2.0258703
Ġone 1.1139085
Ġwith 2.8064306
Ġvery 2.1721702
Ġlow 1.4747703
Ġduct 0.30498612
ility 0.025168924
. 0.97364026
ĠStrength 4.766159
Ġis 0.4011877
Ġshown 5.838216
Ġas 0.60936505
Ġthe 0.36481085
Ġheight 7.7413964
Ġof 0.27335313
Ġthe 0.8861167
Ġcurve 3.753003
Ġon 4.2502513
Ġthe 0.830747
Ġgraph 4.989267
, 1.6206765
Ġhigher 7.290372
Ġis 2.0227134
Ġstronger 1.2068462
. 0.26126868
ĠSt 4.410238
iff 0.004940694
ness 0.020431977
Ġcan 4.418671
Ġbe 0.17123331
Ġshown 1.0708345
Ġas 0.41204217
Ġthe 0.17191112
Ġsteep 7.9181
ness 0.0498466
Ġof 0.23862506
Ġthe 0.07706554
Ġelastic 5.72157
Ġline 4.6924677
Ġon 1.563822
Ġthe 0.09279838
Ġgraph 0.44328368
, 1.513906
Ġst 6.5544786
eeper 0.008042666
Ġis 0.2066045
Ġstiff 0.4209778
er 0.004783407
. 0.12269801
ĠThe 1.8324419
Ġcalculations 8.615378
Ġthat 3.0671499
Ġwill 3.1811602
Ġneed 4.3983774
Ġto 0.008285621
Ġbe 0.02594959
Ġused 4.1854696
Ġare 1.4965867
: 2.3944643
ĠStress 3.2563143
Ġ= 3.1222022
Ġload 5.7363486
/ 3.7003388
area 5.2963886
ĠSt 6.2008724
rain 0.044387296
Ġ= 0.2234951
Ġchange 6.255028
Ġin 0.11731927
Ġlength 1.7347915
/ 0.6101249
original 7.8620396
Ġlength 0.22763681
ĠOb 9.877105
tain 1.5844867
Ġa 1.199814
Ġmean 6.9648046
Ġdiameter 6.1331787
Ġfor 1.9529828
Ġthe 0.45624793
Ġspecimen 3.1736822
Ġby 4.262842
Ġmeasuring 3.3372529
Ġthe 0.34705916
Ġdiameter 2.7961962
Ġat 2.29736
Ġthree 5.360374
Ġdifferent 2.1739848
Ġpoints 0.4195092
Ġalong 2.2148616
Ġthe 0.1301498
Ġspecimen 3.0718102
Ġand 3.2393837
Ġtaking 3.6158543
Ġthe 0.1999743
Ġaverage 1.7343601
ĠOb 12.9891
tain 0.0021065758
Ġa 0.48836586
Ġgauge 8.231311
Ġlength 1.1861322
Ġby 2.6864038
Ġmeasuring 0.8071994
Ġthe 0.16074581
Ġthinner 12.133354
Ġpart 2.3406286
Ġof 0.14817016
Ġthe 0.040634725
Ġspecimen 0.67660266
ĠWhen 8.262324
Ġprogram 12.323444
Ġreturns 7.8269377
Ġto 0.8175819
Ġstart 4.0659122
Ġunlock 14.17833
Ġthe 0.9841872
Ġbottom 8.051671
Ġgrips 12.033887
ĠThe 5.231022
Ġmaterial 4.9772177
Ġgraphs 10.91003
Ġhave 4.1982284
Ġbeen 0.83411103
Ġlabelled 6.634838
Ġ1 6.218825
, 1.1916705
Ġ2 0.31974375
Ġand 0.8657607
Ġ3 0.08840848
. 1.3443831
ĠFor 4.266747
Ġeach 2.596119
Ġmaterial 3.750561
Ġyield 8.805735
Ġstress 0.40268672
Ġand 1.7192247
ĠUltimate 9.476061
ĠTens 1.0908561
ile 0.005174809
ĠStrength 0.4762747
Ġ( 2.9822378
UT 0.68324125
S 0.052813437
) 0.090607256
Ġwill 2.9189591
Ġbe 0.16750991
Ġcalculated 3.000837
. 0.80501336
ĠYoung 8.551519
's 0.04490074
Ġmod 0.88135433
ulus 0.010231345
Ġwould 6.550254
Ġalso 2.8903828
Ġnormally 6.052332
Ġbe 0.1130418
Ġcalculated 0.5134151
, 1.9608845
Ġbut 1.1200178
Ġthere 4.0757017
Ġis 0.51823103
Ġno 0.93175566
Ġgauge 7.6345916
Ġlength 0.631479
Ġto 1.9775492
Ġcalculate 2.2028687
Ġthe 2.928152
Ġstrain 5.9872193
Ġso 4.5683775
ĠYoung 4.1547112
's 0.0561201
Ġmod 0.18160248
ulus 0.011822839
Ġcannot 3.9210851
Ġbe 0.045304798
Ġcalculated 0.96573764
. 0.36023796
ĠThe 1.6876241
Ġthree 5.830225
Ġstress 4.1220417
Ġ- 6.230574
Ġstrain 0.5327789
Ġcurves 0.11934305
Ġshow 4.5970855
Ġsimilar 6.629853
Ġelastic 6.659522
Ġbehaviour 1.6901389
, 1.1485903
Ġthe 3.6018355
Ġlinear 5.584332
Ġpart 3.5846815
Ġat 5.0809526
Ġthe 0.8857511
Ġbeginning 4.5202985
Ġof 0.6196196
Ġthe 0.1685381
Ġcurve 0.4887991
Ġwhere 5.5779905
Ġthe 0.7517874
Ġextension 7.895293
Ġis 0.83413666
Ġproportional 6.105662
Ġto 0.05531686
Ġthe 0.18707325
Ġload 1.1613845
Ġbeing 4.0485125
Ġapplied 0.20113277
. 1.1407077
ĠMaterial 8.44764
Ġ3 6.044838
Ġonly 7.7173867
Ġshows 2.0599275
Ġthis 5.446683
Ġbehaviour 2.577195
Ġand 3.176236
Ġfractures 11.085159
Ġbefore 6.5741315
Ġany 4.6173353
Ġyielding 9.346469
Ġor 3.5251822
Ġplastic 1.0900216
Ġde 0.2992233
formation 0.009604734
Ġcan 3.6575394
Ġoccur 0.22812842
. 0.21229465
ĠMaterials 5.035498
Ġ1 1.602511
Ġand 0.29155117
Ġ2 0.48431832
Ġshow 1.237736
Ġyielding 7.42065
Ġwhere 6.2239695
Ġthe 0.6846653
Ġcurve 4.9990077
Ġtakes 5.20345
Ġon 2.134196
Ġan 2.7383401
Ġerratic 5.927065
Ġshape 1.1356503
Ġand 2.2550802
Ġthen 2.4249156
Ġcontinues 5.801011
Ġto 0.4996106
Ġelong 3.6179442
ate 0.003295686
. 1.3024906
ĠThe 1.6983179
Ġmaterial 2.0378993
Ġis 2.3602026
Ġnow 3.450265
Ġin 2.4684596
Ġplastic 3.455234
Ġde 0.42500415
formation 0.013653348
. 0.9929088
ĠThe 1.6603731
Ġcurve 3.948566
Ġfor 3.9055364
Ġmaterials 2.4538
Ġ1 0.6009313
Ġand 0.06551171
Ġ2 0.13496956
Ġthen 4.2986016
Ġshows 2.6298437
Ġa 1.6805109
Ġpoint 6.433327
Ġwhere 0.9914615
Ġthe 0.74823684
Ġextension 2.5339406
Ġincreases 3.4854553
Ġbut 3.410923
Ġthe 1.1461987
Ġload 4.4652014
Ġremains 2.0286298
Ġthe 2.384414
Ġsame 0.0035552592
. 0.31944942
ĠThis 2.16809
Ġis 0.62284076
Ġthe 1.608577
Ġultimate 6.3942485
Ġtens 0.9291615
ile 0.00061132346
Ġstrength 0.10506353
Ġof 2.4183848
Ġthe 0.10678344
Ġmaterial 0.18820366
. 0.29872113
ĠPast 10.93135
Ġthis 1.5427432
Ġpoint 0.10832652
Ġthe 0.8132392
Ġcurves 4.979425
Ġbegin 3.9815323
Ġto 0.02052585
Ġrapidly 6.465565
Ġfall 6.1393147
, 2.456352
Ġthis 2.935331
Ġis 0.2236875
Ġwhere 1.836832
Ġneck 10.259601
ing 0.0063966657
Ġoccurs 0.68941563
. 0.3227123
ĠNeck 5.8167834
ing 0.009016469
Ġcontinues 8.080676
Ġuntil 0.6183929
Ġthe 0.3702387
Ġsample 4.1366873
Ġfractures 7.863265
. 1.1699878
ĠThe 1.4836239
Ġexperiment 6.87426
Ġhas 3.779506
Ġallowed 7.9648314
Ġvarious 7.551948
Ġcalculations 5.526621
Ġto 0.82395494
Ġbe 0.031906746
Ġcarried 3.35468
Ġout 0.0065379445
Ġin 4.2179146
Ġorder 0.9303264
Ġto 0.034866292
Ġcompare 4.865207
Ġthe 0.7833799
Ġvalues 4.5278707
. 2.1306314
ĠIt 3.1003947
Ġhas 1.7292227
Ġalso 1.1071588
Ġillustrated 7.127522
Ġdifferent 5.2256947
Ġbehavioural 9.968419
Ġpatterns 2.5868607
Ġand 3.1282432
Ġdifferent 3.9893124
Ġproperties 3.5034316
Ġa 8.617503
Ġmaterial 0.39459154
Ġcan 0.6543247
Ġhave 0.43321344
. 0.5635152
ĠThe 1.542845
Ġprinciple 8.730015
Ġaim 8.355114
Ġon 7.532558
Ġan 5.000153
Ġexample 5.2639627
Ġtens 6.807264
ile 0.005320892
Ġtest 0.2848032
Ġand 6.9553285
Ġtheoretical 7.780188
Ġevaluation 4.8984327
Ġof 1.0703529
Ġresults 7.074455
Ġhas 3.6924415
Ġbeen 0.06765519
Ġwell 8.772685
Ġmet 4.1150603
. 0.4156515
ĠErrors 9.177566
Ġcould 4.6832843
Ġhave 1.0026658
Ġoccurred 2.7557774
Ġduring 2.0743525
Ġcalculations 5.5258255
Ġeither 6.8539176
Ġin 2.2967515
Ġthe 0.42087656
Ġform 4.019149
Ġof 0.008819517
Ġrounding 4.9884763
Ġerrors 1.2612772
Ġor 0.62267673
Ġhuman 9.574583
Ġerror 0.6596882
Ġin 3.4153385
Ġreading 5.246793
Ġthe 0.4546686
Ġgraphs 2.09268
. 0.27680153
ĠOverall 6.799175
Ġit 2.760613
Ġis 1.480103
Ġfelt 5.0242586
Ġthat 0.19195847
Ġthis 1.9827766
Ġwas 3.8667605
Ġa 0.53976697
Ġsuccessful 2.231173
Ġand 2.2317789
Ġvaluable 4.1745872
Ġexperiment 2.8067565
. 0.756166
