Int 8.263404
on 6.4453964
ation 0.48860857
Ġhas 5.494115
Ġbeen 1.152735
Ġa 1.4272761
Ġwide 9.389261
Ġand 3.0562198
Ġcommon 5.163184
Ġtopic 1.7054493
Ġin 1.5000116
Ġthe 1.3660077
Ġstudy 3.7968717
Ġof 0.036178693
ĠEnglish 3.6608543
Ġphon 1.3754697
ology 0.14221652
. 0.9726273
ĠDifferent 4.8731318
Ġfrom 4.6890182
Ġsegment 5.1258807
al 0.11198296
Ġphon 2.0171204
ology 0.50769734
Ġsuch 4.5041924
Ġas 0.0033616507
Ġthe 1.8091309
Ġstudy 0.9150399
Ġof 0.03750954
Ġphon 1.9121166
em 0.47731835
es 0.005629903
Ġand 1.0787864
Ġsyll 2.097382
ables 0.23194717
, 0.08143548
Ġint 0.36730427
on 0.00034464613
ation 0.1268151
Ġbelongs 5.9867253
Ġto 0.012228232
, 10.250021
Ġas 2.0961738
Ġwell 3.7519715
Ġas 0.047392953
Ġstress 12.902508
, 0.6686151
Ġsu 3.9135501
pr 0.00096046674
ase 0.0004423766
gment 0.0028531316
al 0.062248092
Ġphon 0.34684184
ology 0.013950074
Ġ( 3.4668791
Ro 8.4695425
ach 0.007938244
Ġ2000 4.687706
). 1.0025756
ĠIt 2.0181563
Ġis 0.8232046
Ġa 1.7824165
Ġcomplicated 5.767412
Ġsystem 2.7645729
Ġin 2.7811253
ĠEnglish 1.781441
Ġwhich 2.6206524
Ġplays 4.409752
Ġan 0.78456944
Ġessential 3.1786447
Ġrole 0.090375945
Ġin 0.06996064
Ġthe 1.2004743
Ġuse 6.197218
Ġof 0.04724797
Ġlanguage 1.1272926
Ġand 2.522697
Ġit 3.9449306
Ġsometimes 7.20631
Ġmay 4.2860036
Ġimply 6.907785
Ġmore 3.5330048
Ġinformation 1.9982919
Ġbeyond 7.2993116
Ġthe 0.64288855
Ġreal 7.2940426
Ġspeech 5.138314
Ġrather 7.84703
Ġthan 0.012307399
Ġbe 7.0088434
Ġa 1.7725291
Ġby 6.487547
product 1.3983687
Ġof 0.19983415
Ġthe 1.4045801
Ġutter 4.3665113
ance 0.07119705
. 0.96668416
ĠFor 3.0794303
Ġaccurately 13.661305
Ġdescribing 1.7538254
Ġthe 1.2771521
Ġint 0.78788334
on 0.00063112524
ation 0.05622388
Ġsystem 1.6989377
, 1.5989906
Ġvarious 4.233883
Ġanalysis 6.0290833
Ġsystems 4.0099716
Ġand 2.6403182
Ġnot 5.2535663
ations 0.09352007
Ġhave 0.36279973
Ġbeen 0.041589245
Ġused 2.8718498
Ġwhich 4.82815
Ġoften 4.0934534
Ġhave 2.914796
Ġtheir 1.7926898
Ġown 0.3194088
Ġadvantages 1.5921415
Ġand 0.17993431
Ġdisadvantages 0.41885984
. 0.29969615
ĠThis 3.1060002
Ġessay 4.142127
Ġwill 0.9121419
Ġbasically 8.004524
Ġintroduce 2.4750915
Ġtwo 2.5637496
Ġof 2.281718
Ġthe 0.62027586
Ġanalysis 3.5085018
Ġsystems 0.120401725
Ġ- 5.480111
Ġthe 0.8274332
Ġtraditional 3.486552
ĠBritish 5.16411
Ġanalysis 1.5587374
Ġof 3.8089347
ĠEnglish 3.098862
Ġint 0.21688332
on 0.00019643032
ation 0.007016404
Ġpresented 6.4624734
Ġby 0.2407626
ĠPeter 4.436541
ĠRo 1.9582163
ach 0.0018065943
Ġ( 0.82126313
2000 0.9220845
) 0.3014233
Ġand 0.06832616
Ġthe 0.21145259
Ġrelatively 6.3738294
Ġnew 0.36377576
Ġnotation 4.065184
Ġsystem 1.304958
ĠTo 10.930729
BI 0.002538642
Ġused 4.209321
Ġwidely 4.738707
Ġin 0.624566
Ġthe 0.6974851
ĠU 4.4944334
. 0.018241212
S 0.029769499
.; 6.804061
Ġfurthermore 3.8863904
, 0.09716017
Ġit 1.3591299
Ġattempts 5.31141
Ġto 0.021857074
Ġevaluate 3.609229
Ġthe 0.7623771
Ġbenefits 5.746989
Ġand 0.37171394
Ġdrawbacks 1.2096635
Ġof 0.0782857
Ġthose 4.1147237
Ġtwo 0.68226594
Ġsystems 0.3155477
Ġby 3.0509076
Ġa 3.94569
Ġcomparison 1.9365457
Ġbetween 2.4854727
Ġthem 0.6298019
. 0.29447058
ĠAs 5.1368237
Ġa 0.8493693
Ġkind 5.814695
Ġof 0.00614493
Ġaut 9.746567
ose 0.4240601
gment 0.009763863
al 0.06713115
Ġapproach 3.9317708
Ġto 2.0260053
Ġthe 1.4938138
Ġint 1.7848611
on 0.00031131558
ation 0.44381362
Ġsystem 0.9802646
, 0.21471857
ĠTo 0.73734957
BI 0.0019787587
Ġis 1.3783238
Ġoriginated 7.5799146
Ġby 2.2542167
ĠPierre 2.5880423
h 0.17023288
umber 0.00029354883
t 0.008617912
Ġ( 0.62019104
1980 0.35007808
: 7.61692
Ġ87 6.053107
Ġin 8.042045
ĠCr 7.490228
utt 0.0717576
end 0.006098574
en 0.0011549232
Ġ1997 3.2261295
) 1.1913247
Ġand 0.59425324
Ġused 4.6700807
Ġmostly 5.7614493
Ġin 0.45120782
Ġthe 0.2788265
ĠAmerican 4.9505
Ġacademic 4.9682627
Ġresearch 3.8155713
. 1.4304043
ĠIt 1.8897111
Ġapplies 6.832359
Ġonly 6.666157
Ġtwo 5.527711
Ġtones 3.7589598
, 1.2995311
ĠHigh 4.1055665
Ġ( 0.95081943
H 0.07619854
) 0.04860723
Ġand 0.033692833
ĠLow 0.02856803
Ġ( 0.021151427
L 0.0053536706
) 1.0172036
Ġto 1.1806412
Ġthe 1.971726
Ġanalysis 3.9719691
Ġand 2.9014866
Ġpresents 5.8229127
Ġa 1.4648032
Ġquite 5.803026
Ġnew 4.590071
Ġview 2.5657084
Ġof 1.1343012
Ġthe 0.78685385
Ġint 0.3522187
on 0.0005006368
ation 0.011371977
Ġsystem 0.41921583
. 1.2235689
ĠIt 2.612446
Ġis 1.1260613
Ġnecessary 7.604937
Ġto 0.25724563
Ġintroduce 4.4811597
Ġfive 10.335933
Ġtypes 3.8787863
Ġof 0.039781436
Ġsymbols 5.5615425
Ġused 1.8873515
Ġin 0.17211826
ĠTo 0.6875543
BI 0.0024556427
Ġ( 3.2732747
Cr 1.4620028
utt 0.0016451447
end 0.0029424967
en 0.00030976496
Ġ1997 0.21817262
: 0.437782
Ġ60 5.495731
): 1.484383
ĠOther 9.090062
Ġsymbols 1.9798037
Ġsuch 3.6773975
Ġas 0.0088723125
Ġ' 5.1291957
ĠTherefore 15.241695
, 0.36056343
Ġif 4.2896943
Ġthe 1.6712068
Ġtone 3.0538259
Ġunit 4.7411656
Ġ( 3.6497116
2 6.1968307
) 0.38107157
Ġis 0.89273036
Ġanalyzed 4.762171
Ġin 2.2092633
ĠTo 1.4820961
BI 0.00328582
, 0.30255535
Ġit 1.0269014
Ġmay 3.5605636
Ġbe 0.5162585
Ġlike 4.883886
Ġthis 0.94063973
. 3.4506764
Ġ( 2.578283
2 1.959198
) 0.2042167
Ġ( 2.9120286
10 7.3073764
) 0.49087992
ĠAfter 6.8588247
Ġthe 1.56266
Ġrough 8.97521
Ġintroduction 2.6470847
Ġof 0.4008226
Ġboth 3.6991699
Ġsystems 1.095565
, 0.18251628
Ġthe 1.3210013
Ġadvantages 3.6008613
Ġand 0.089344464
Ġdisadvantages 0.33273688
Ġof 0.10711319
Ġeach 1.3756415
Ġcan 4.992441
Ġbe 0.0439884
Ġnoticed 6.5779195
Ġwith 5.280005
Ġa 1.2575175
Ġcomparison 0.675929
Ġbetween 0.80230874
Ġthem 0.30479935
. 0.19040307
Ġ1 4.121862
. 0.22048415
ĠThe 1.426222
Ġapplication 6.7408485
Ġof 0.31139708
Ġdifferent 4.052976
Ġnot 2.8625891
ations 0.013532326
Ġusually 9.247021
Ġconve 7.671878
ys 0.0027709424
Ġa 2.231901
Ġdirect 7.210471
Ġimpression 3.5332234
Ġto 1.5983562
Ġreaders 2.2944705
. 0.9907162
ĠUnd 8.698789
en 2.649233
iably 0.036552723
, 0.04516778
Ġthe 0.9053644
Ġsymbols 4.5750613
Ġsuch 5.029904
Ġas 0.016488291
Ġ' 2.2419932
Ġ', 6.056762
Ġ' 0.6513351
Ġ' 1.2601162
Ġand 0.49886912
Ġ' 0.22264221
Ġ' 0.18489966
Ġdo 5.0008903
Ġprovide 5.0950403
Ġa 0.6169582
Ġsimple 4.1786137
Ġand 0.8931614
Ġvisual 4.7427635
Ġguidance 6.0480056
Ġfor 1.1316204
Ġthe 1.2205551
Ġreaders 1.0608218
Ġof 3.067777
Ġcourse 9.496992
Ġwith 4.698809
Ġappropriate 5.786624
Ġexplanation 2.71953
Ġbut 4.938637
Ġare 4.875957
Ġquite 3.407703
Ġdifficult 1.8198906
Ġto 0.24606824
Ġtype 5.0806494
Ġin 1.7514881
Ġcomputers 3.2306993
. 0.618626
ĠCont 8.100152
rarily 0.21631758
, 0.021546181
Ġ' 3.6433856
Ġ* 7.9887815
Ġ' 1.0976343
Ġ' 2.2532923
Ġ! 5.2584047
Ġ', 3.5665655
Ġ' 0.32622597
Ġ% 5.0766435
Ġ', 1.7386545
Ġetc 2.4470963
. 0.20719217
Ġare 0.65774035
Ġquite 2.7999651
Ġmeaningless 7.5094795
Ġand 1.5880435
Ġabstract 4.8008823
Ġcodes 7.438896
Ġwhich 1.5132772
Ġare 1.3009051
Ġdifficult 2.3546968
, 6.216281
Ġespecially 3.7556794
, 3.8064237
Ġfor 0.2621176
Ġlearners 3.9857936
Ġto 0.7392302
Ġremember 1.6641076
, 3.6010115
Ġwhich 3.6100101
Ġis 1.7157248
Ġalso 3.3788414
Ġagreed 7.871764
Ġby 0.12000258
ĠRo 2.3749087
ach 0.0030909441
Ġ( 0.14981286
2000 0.09423738
) 2.4880416
Ġand 1.4209775
Ġ( 6.776578
Cr 1.0404361
utt 0.0012118552
end 0.0020992889
en 0.00056868145
Ġ1997 0.11053819
); 5.4260993
Ġhowever 2.4648933
, 0.03015747
Ġthe 1.9770956
Ġsystem 4.232524
Ġis 1.7596233
Ġeasy 3.296492
Ġto 0.18226941
Ġbe 2.3543246
Ġused 2.266814
Ġin 0.7111585
Ġcomputers 0.67791754
. 0.91686594
Ġ2 0.93621224
. 0.005689246
ĠFor 4.1839237
Ġthe 1.1323856
Ġattempt 9.522465
Ġto 0.6324072
Ġdescribe 2.1622527
Ġthe 0.5851096
Ġnatural 5.9736032
Ġspeech 2.6959825
, 1.1254625
Ġthe 1.0604179
ĠRo 8.608839
ach 0.0014452788
's 0.69549114
Ġsystem 0.9774995
Ġseems 3.1515672
Ġto 0.39684114
Ġhave 2.5442927
Ġmore 1.9265925
Ġlimitation 6.3141007
Ġthan 1.2475895
ĠTo 0.53792715
BI 0.004967109
. 0.4188875
ĠOne 5.019013
Ġis 3.6708047
Ġthe 1.5099647
Ġanalysis 6.122765
Ġon 5.055548
Ġmore 6.9946113
Ġthan 0.6500935
Ġone 0.47971514
Ġtone 0.7801626
Ġmovement 9.775496
Ġin 2.281913
Ġa 1.1174203
Ġtone 1.2391312
Ġunit 0.036908526
. 0.9118982
ĠRo 3.7919936
ach 0.0024695648
Ġgenerally 6.8178053
Ġsummarizes 7.5940733
Ġfive 6.0850706
Ġsituations 5.6839437
Ġas 2.776305
Ġmentioned 5.9029927
Ġabove 0.9249349
; 2.6967285
Ġnevertheless 3.3829856
, 0.03730516
Ġthe 2.1199837
Ġnatural 4.829427
Ġint 3.104971
on 0.0010292586
ation 0.0478948
Ġsystem 2.5570846
Ġis 1.3028256
Ġnot 1.8069066
Ġas 2.6482909
Ġsimple 0.68627125
Ġas 0.16047192
ĠRo 2.7660484
ach 0.0012011124
's 1.1130095
Ġgeneral 5.4458065
ization 0.90564334
. 0.50405586
ĠConsidering 6.7285132
Ġthe 0.51578677
Ġfollowing 3.4731095
Ġexample 1.0434841
Ġ( 1.7578266
11 4.8298955
) 1.1647018
Ġindicated 10.804382
Ġin 1.9697546
ĠTo 2.2706327
BI 0.001032957
Ġsystem 5.586178
Ġby 4.098768
ĠCr 1.9014578
utt 0.003714688
end 0.0039627575
en 0.00029140117
Ġ( 0.09291434
1997 0.05726253
: 0.2176385
Ġ63 3.298466
), 0.39590898
Ġit 1.6630641
Ġis 0.80638105
Ġdifficult 2.5624876
Ġto 0.22331512
Ġuse 3.884967
ĠRo 1.4032407
ach 0.0016218004
's 0.029455155
Ġsystem 0.71356124
Ġto 0.5476719
Ġanalyze 1.2425512
Ġthe 1.1866401
Ġtone 2.1418521
Ġunit 1.3520725
. 1.3270231
Ġ( 0.31568646
11 0.11043095
) 0.009569527
ĠAccording 4.7018456
Ġto 0.010058234
ĠRo 1.7904893
ach 0.0014144769
Ġ( 0.8863511
2000 0.06993635
), 1.193624
Ġthere 2.7248516
Ġis 1.5575739
Ġonly 1.3978155
Ġone 0.16924755
Ġtone 0.47957513
Ġmovement 0.36752808
Ġcarried 8.855857
Ġby 1.1155782
Ġthe 0.6631654
Ġton 5.4014997
ic 0.1897467
Ġsyll 1.0824034
able 0.03716398
, 2.3438582
Ġso 2.6180983
Ġthe 0.95071584
Ġpart 7.48197
Ġfrom 3.1949987
ĠThus 11.036022
Ġthere 5.4040236
Ġshould 4.031665
Ġbe 0.19771564
Ġno 1.9103762
Ġtone 1.4953341
Ġmovement 0.4719475
Ġbefore 3.9512198
Ġthe 0.7814297
Ġton 1.0073588
ic 0.0012573282
Ġsyll 0.278521
able 0.0064301966
Ġcarrying 8.10035
Ġa 2.5490975
Ġrising 3.704983
Ġtone 0.1595045
Ġsuch 6.2748713
Ġas 0.01755103
Ġ( 2.2201743
9 3.97365
a 2.7990448
), 1.9567307
Ġbut 2.1318352
Ġit 2.071072
Ġdoes 3.1087744
Ġnot 1.1011306
Ġmake 3.4488
Ġsense 0.48087037
Ġin 1.9326142
Ġ( 2.455089
11 0.24446498
). 0.55513334
ĠThe 2.3628485
Ġpossible 6.329409
Ġsolution 1.8578049
Ġis 0.63796794
Ġeither 4.944265
Ġto 0.9368101
Ġadmit 5.8543
Ġthe 1.5243583
Ġexistence 2.6788113
Ġof 0.006584383
Ġmore 2.6524673
Ġthan 0.19431956
Ġone 0.13451277
Ġton 4.536495
ic 0.069458574
Ġsyll 0.21603657
able 0.17857064
Ġin 0.9809721
Ġa 0.9053081
Ġtone 0.11346742
Ġunit 0.021886015
, 1.8761301
Ġas 2.5478878
Ġthe 3.3424294
Ġproblem 7.5140295
Ġraised 4.708788
Ġby 0.41602424
ĠRo 2.4976141
ach 0.009645596
Ġhimself 1.913762
Ġ( 0.8514295
2000 0.39461142
: 0.3673259
Ġ178 6.097332
) 1.5631926
Ġor 0.34920907
Ġto 0.41118422
Ġdivide 4.208283
Ġ( 3.8023434
11 0.13728166
) 0.07560301
Ġinto 0.08159747
Ġthree 2.6705096
Ġtone 0.3384989
Ġunits 0.095235825
Ġbut 5.887565
Ġit 1.2465844
Ġwill 2.526225
Ġlooks 11.006025
Ġquite 2.0634592
Ġfar 6.3546267
fetched 3.0934818
. 0.61089027
ĠAnother 1.7645252
Ġlimitation 1.7270871
Ġis 0.94392806
Ġto 4.108639
Ġanalyze 1.9354382
Ġthe 0.49072626
Ġdetail 9.159354
Ġin 3.527595
Ġa 1.6312512
Ġrising 5.0797367
Ġor 2.2608967
Ġa 2.3960805
Ġfalling 0.07233686
Ġpitch 5.455887
Ġmovement 1.2694229
, 2.9000988
Ġfor 2.3976336
Ġinstance 1.4634728
, 0.15735018
Ġthe 1.0338556
Ġhigh 4.991138
Ġfall 3.9826982
Ġand 3.472933
Ġlow 1.2268177
Ġfall 0.65034324
. 1.5926305
ĠAs 2.6772263
Ġshown 2.5030458
Ġin 0.14686236
Ġthe 1.3935372
Ġexample 2.0275834
Ġ( 0.20194104
4 4.6761312
) 1.0864282
Ġwhere 5.779906
ĠIn 8.6214
Ġcontrast 4.6828
, 0.24914166
ĠTo 0.9004655
BI 0.053785317
Ġhas 2.9512327
Ġa 1.4712596
Ġcon 11.329458
natural 7.0805745
Ġmerit 9.412272
Ġfrom 6.260614
Ġits 2.0774357
Ġsimple 3.97148
Ġstructure 2.8886425
Ġthat 3.6788564
Ġit 1.3173879
Ġis 1.4796176
Ġmore 3.7729042
Ġflexible 1.8561373
Ġto 0.9493642
Ġdescribe 1.284128
Ġdifferent 3.0676045
Ġlevels 5.675441
Ġof 0.15248574
Ġthe 2.3872213
Ġpitch 1.3621339
Ġheight 8.768322
. 1.2764931
ĠSo 5.511491
Ġa 4.681323
Ġhigh 2.0781724
Ġfall 0.12547718
Ġand 1.9982196
Ġa 0.44541195
Ġlow 0.08788783
Ġfall 0.016782705
Ġcan 0.8580346
Ġbe 0.1157133
Ġillustrated 5.7628098
Ġpresented 13.779658
Ġas 2.7109563
ĠH 7.591291
* 2.3667374
L 1.7721556
- 5.0439153
L 1.2503965
% 2.534948
Ġand 1.499316
Ġ! 6.728909
H 1.4894878
* 1.7346561
L 0.8054721
- 0.7069566
L 0.40915665
% 1.4873085
Ġin 2.0860798
Ġtone 5.204252
Ġunits 1.21768
Ġ( 1.4981987
Cr 5.3217244
utt 0.001267413
end 0.00072435196
en 0.0006066752
Ġ1997 0.052742746
: 0.19424595
Ġ63 2.2708423
). 0.4912367
ĠHence 6.548746
, 0.41396508
ĠTo 1.6503195
BI 0.0046886643
Ġseems 2.23486
Ġable 5.942389
Ġto 0.01161454
Ġbe 3.506653
Ġapplied 1.1799878
Ġmore 2.10036
Ġsuccessfully 4.501735
Ġand 3.971659
Ġextensively 5.586601
Ġin 1.3453768
Ġthe 0.9523807
Ġdescription 1.3725289
Ġof 0.059902858
Ġint 1.7231148
on 0.00071916316
ation 0.05742816
Ġin 1.9814569
ĠR 12.283807
. 1.9990128
P 4.2014823
., 4.236214
ĠG 5.919934
. 0.13575068
A 3.6872952
. 0.36729226
Ġand 0.9183724
ĠAustralian 6.1151094
ĠEnglish 0.3214907
Ġ( 1.803519
Cr 0.60708857
utt 0.0004175709
end 0.00096464186
en 0.00032276337
Ġ1997 0.0751609
) 3.0878546
Ġalthough 4.2173643
Ġit 0.8112526
Ġhas 1.989793
Ġnot 2.390613
Ġbeen 0.31389028
Ġapplied 1.6595976
Ġvery 4.9317636
Ġwell 3.546967
Ġinto 5.3580565
Ġall 5.6711526
Ġthe 1.3379867
Ġint 3.91609
on 0.0012641916
ation 0.057712395
Ġsystems 1.22803
Ġin 1.0396676
Ġa 5.472324
Ġstatistic 11.919115
Ġresult 5.6846075
Ġ( 2.293687
Ohio 12.015721
ĠState 0.28780267
ĠUniversity 0.13264342
ĠDepartment 4.105124
Ġof 0.0310824
ĠL 0.7584326
ingu 0.0027621558
istics 0.012154201
Ġ2004 4.1306286
). 0.25086388
Ġ3 0.51725334
. 0.0038662993
ĠWith 4.434779
Ġthe 1.4041868
Ġdrawback 8.110618
Ġin 2.959397
ĠRo 3.6050177
ach 0.0017980556
's 0.027454315
Ġsystem 0.25266683
Ġdisc 11.901582
ss 6.832266
ed 0.024308924
Ġabove 0.22948
, 0.0376905
Ġit 1.504445
Ġstill 3.345822
Ġhad 7.5759883
Ġthe 2.4767096
Ġbenefit 3.0342536
Ġof 0.64870244
Ġits 3.2596924
Ġsimple 3.2938306
Ġgeneral 6.322127
ization 0.19797802
Ġabout 4.1046033
Ġthe 0.3929294
Ġint 0.93450165
on 0.0022426527
ation 0.013627729
Ġbecause 7.7282925
Ġit 0.93031865
Ġprovided 5.8045545
Ġa 0.54173964
Ġcomparatively 6.9954395
Ġclear 2.30911
Ġprofile 8.635546
Ġof 0.40330443
Ġthe 0.39691913
Ġreal 7.422984
Ġsystem 4.7117906
Ġwith 3.6156702
Ġstraightforward 7.151071
Ġnot 3.8437462
ations 0.0071771606
Ġand 2.5509348
Ġestablished 7.509786
Ġan 4.1635823
Ġeasy 2.2536218
Ġaccess 4.346442
Ġto 0.4848187
Ġthe 0.7111602
Ġcomplicated 7.516163
Ġint 1.0269703
on 0.0016806078
ation 0.015159035
Ġsystem 0.23780102
, 3.6323183
Ġat 4.243779
Ġleast 0.19687866
Ġfor 1.1479868
Ġthe 1.0333883
Ġlearners 3.1708004
. 0.8215406
ĠNonetheless 5.5909567
, 0.018308533
ĠTo 1.3572655
BI 0.0011782553
Ġfocuses 6.864765
Ġon 0.75108796
Ġa 2.6619604
Ġfull 6.7893515
- 2.3638427
scale 1.1521032
Ġdescription 1.1700047
Ġand 3.5327237
Ġmakes 5.221579
Ġit 2.0526435
Ġa 3.6857224
Ġlittle 2.3519387
Ġdifficult 1.5061982
Ġto 0.71882
Ġsummarize 4.3194847
Ġthe 0.5953845
Ġanalysis 5.129595
Ġresults 3.4546788
Ġand 3.8538818
Ġpoint 6.8572435
Ġout 0.12788977
Ġthe 0.3696824
Ġoutline 7.8690724
Ġof 0.15515344
Ġthe 0.25372103
Ġwhole 2.5671675
Ġsystem 0.8820391
. 0.66573626
ĠTo 3.577413
Ġsum 2.895813
Ġup 0.03686202
, 0.06818921
Ġthis 5.1770034
Ġessay 0.3354939
Ġoutlined 8.552182
Ġthe 0.53302246
Ġwhole 7.6689734
Ġstructure 3.5251036
Ġof 0.12084965
ĠEnglish 3.6071308
Ġint 0.023558406
on 0.00042806406
ation 0.0041243457
Ġby 3.0016747
Ġcomparison 5.3487906
Ġbetween 0.44483596
Ġthe 0.818194
Ġtraditional 0.9612422
Ġanalysis 2.7217364
Ġsystem 1.0824106
Ġused 4.588358
Ġin 0.55900425
ĠRo 3.460965
ach 0.0018565757
Ġ( 0.6339763
2000 0.014115034
) 0.026531685
Ġand 0.03383037
Ġthe 0.1546345
ĠTo 2.769905
BI 0.0029246847
Ġsystem 1.1076567
Ġwidely 2.1171243
Ġused 0.31729284
Ġin 0.09558493
ĠAmerica 2.9529781
. 0.5125178
ĠThe 2.1199927
Ġtraditional 3.9520962
Ġsystem 0.90029955
, 3.1079712
Ġbased 4.076512
Ġon 0.051702198
Ġthe 0.48463792
Ġconcepts 6.0900517
Ġof 0.20939583
Ġtones 4.1750536
Ġand 0.5973723
Ġunits 7.080764
, 0.26618892
Ġis 1.4738542
Ġeasy 3.1783042
Ġto 0.14843038
Ġread 4.8788905
Ġand 0.6329079
Ġunderstand 1.2134402
Ġwith 2.71475
Ġthe 2.0521948
Ġuse 3.262162
Ġof 0.004759392
Ġvisual 4.1398745
Ġsymbols 1.3857646
Ġand 2.5025802
Ġcan 4.258806
Ġprovide 2.7134688
Ġrather 7.4858093
Ġprimary 10.54254
Ġand 1.7507882
Ġclear 2.0371187
Ġcont 7.619347
our 0.4742245
Ġabout 6.228774
Ġthe 0.18250254
Ġwhole 2.474734
Ġsystem 0.95116055
Ġalthough 4.398916
Ġit 0.3308402
Ġmay 3.115832
Ġfail 4.189985
Ġto 0.21001971
Ġanalyze 3.1086676
Ġsome 1.749622
Ġphenomena 4.978273
Ġin 1.4023615
Ġthe 0.922888
Ġchange 10.062089
ful 6.600085
Ġreality 6.7102246
Ġand 3.4102228
Ġthe 2.5610754
Ġinconvenience 10.177936
Ġin 1.2448593
Ġthe 1.5069093
Ġcomputer 3.3605232
Ġinput 3.7955012
Ġprocess 5.5438385
. 0.45968592
ĠIn 2.7446096
Ġcontrast 0.3709532
, 0.034311034
Ġthe 0.75958675
Ġflexible 6.851775
Ġsystem 2.0895863
ĠTo 2.1179297
BI 0.0025727618
Ġmay 3.6813064
Ġsucceed 5.7386723
Ġto 1.4155611
Ġtrack 8.207325
Ġdetailed 7.2458715
Ġinformation 2.1850128
Ġoccurring 11.177565
Ġin 0.18382709
Ġspeech 3.7817173
Ġand 1.5806254
Ġgive 4.597707
Ġa 0.5918811
Ġcomparatively 5.599514
Ġaccurate 3.1953385
Ġdescription 1.0455331
; 4.0827165
Ġhowever 0.38131252
, 0.021180162
Ġthere 4.7944393
Ġare 0.7914877
Ġmany 3.539518
Ġabstract 3.4828248
Ġsymbols 0.6472156
Ġrequiring 7.1221943
Ġadequate 6.4590807
Ġcomprehension 7.2525487
Ġalthough 6.6074443
Ġit 0.61260897
Ġis 0.80286926
Ġsimple 4.098238
Ġfor 2.7521791
Ġcomputer 1.9681003
Ġoperation 4.862362
. 0.12791558
ĠTherefore 2.9824157
, 0.033575527
Ġif 4.159878
Ġthe 1.2770839
Ġfirst 5.986664
Ġsystem 1.1564538
Ġis 0.636213
Ġsupposed 5.903056
Ġto 0.046859246
Ġbe 0.3909803
Ġeasy 5.0071836
Ġfor 1.3524431
Ġa 3.5980005
Ġgeneral 3.7310996
Ġintroduction 3.8429883
Ġand 1.5542048
Ġfundamental 8.705844
Ġlearning 3.0474226
, 0.6191768
Ġthen 3.2052813
Ġthe 0.2564431
Ġsecond 0.56392485
Ġone 0.8254568
Ġis 0.8952917
Ġmore 1.3202168
Ġsuitable 1.2662535
Ġfor 0.18622065
Ġadvanced 3.1647973
Ġresearch 1.9503887
Ġto 4.7277946
Ġcertain 9.154716
Ġextent 1.303096
; 4.312323
Ġnevertheless 2.655855
, 0.015217614
Ġthey 3.0671935
Ġboth 1.4432149
Ġhave 1.0184423
Ġlimitation 6.8349385
Ġin 1.0807943
Ġdifferent 2.7463708
Ġaspects 0.8607008
. 0.9307531
ĠThere 5.0032115
Ġare 1.7664291
Ġstill 1.0073531
Ġother 3.030475
Ġways 2.584419
Ġof 1.6967424
Ġdescribing 2.1866302
Ġthe 1.0058494
Ġnatural 4.5152874
Ġspeech 2.178514
Ġand 2.4766614
Ġwill 6.4651165
Ġbe 0.39087322
Ġmore 3.6156185
; 10.3236685
Ġinevitably 8.5216465
Ġthose 6.208879
Ġmethods 3.1793997
Ġwill 1.2007318
Ġprobably 6.073297
Ġhave 1.8110303
Ġtheir 0.57247543
Ġown 0.17036037
Ġmerits 1.6172999
Ġand 0.12625924
Ġshortcomings 2.5149295
Ġin 3.0908704
Ġdifferent 1.965201
Ġaspects 0.91219914
Ġas 2.8848886
Ġwell 0.31710845
. 0.31403753
ĠHowever 3.656095
, 0.019008113
Ġwith 3.932233
Ġthe 0.6064186
Ġcontinuous 3.6403253
Ġdevelopment 0.79797256
Ġin 2.0853636
Ġint 5.3774366
on 0.0021413977
ation 0.09830848
Ġresearch 0.8486819
, 0.3965869
Ġthe 1.5774717
Ġtrue 6.088298
Ġface 5.766299
Ġof 0.04012769
Ġthis 4.5058894
Ġcomplicated 1.2469581
Ġand 2.783437
Ġattractive 6.1959944
Ġsystem 0.7674437
Ġwill 0.7968057
Ġbe 0.6492681
Ġunfolded 5.3096714
Ġone 3.427459
Ġday 0.20473933
. 0.5554151
