Int 8.446076
on 6.585862
ation 0.24956737
Ġhas 5.539287
Ġbeen 1.4464525
Ġa 1.367187
Ġwide 8.731014
Ġand 3.4306464
Ġcommon 6.460284
Ġtopic 2.3772297
Ġin 1.8368511
Ġthe 1.4345309
Ġstudy 4.072203
Ġof 0.0342335
ĠEnglish 3.1499505
Ġphon 3.9378545
ology 0.30780143
. 0.9927425
ĠDifferent 7.143909
Ġfrom 5.438111
Ġsegment 9.257385
al 0.478482
Ġphon 2.37064
ology 0.17568536
Ġsuch 6.0155864
Ġas 0.038733225
Ġthe 2.354278
Ġstudy 4.486762
Ġof 0.0135355275
Ġphon 3.088292
em 1.3821045
es 0.01725287
Ġand 1.9295567
Ġsyll 1.9052606
ables 0.36800015
, 0.23144601
Ġint 1.1543299
on 0.0007837038
ation 0.017333832
Ġbelongs 7.6094136
Ġto 0.059728082
, 8.831934
Ġas 3.5703638
Ġwell 1.660143
Ġas 0.07436212
Ġstress 11.136421
, 1.9723026
Ġsu 8.807378
pr 0.45345563
ase 0.1030821
gment 0.006463313
al 0.16103244
Ġphon 0.23332317
ology 0.044137027
Ġ( 2.6833963
Ro 9.585397
ach 3.8741295
Ġ2000 5.5165577
). 0.8840186
ĠIt 3.0312474
Ġis 0.59756684
Ġa 2.1188726
Ġcomplicated 6.611273
Ġsystem 3.6634939
Ġin 3.0146587
ĠEnglish 5.0673394
Ġwhich 3.6833055
Ġplays 6.987302
Ġan 1.1432887
Ġessential 3.002573
Ġrole 0.13759576
Ġin 0.122805566
Ġthe 1.0768712
Ġuse 6.3460064
Ġof 0.062150538
Ġlanguage 3.3039901
Ġand 2.1474915
Ġit 3.9323554
Ġsometimes 7.6850767
Ġmay 5.2936816
Ġimply 8.190347
Ġmore 4.202783
Ġinformation 5.275397
Ġbeyond 7.364927
Ġthe 0.72127014
Ġreal 6.91542
Ġspeech 4.3187785
Ġrather 6.551221
Ġthan 0.024363033
Ġbe 5.105717
Ġa 1.9115736
Ġby 7.854096
product 2.2446408
Ġof 0.11144397
Ġthe 1.2792783
Ġutter 4.2293706
ance 0.09332637
. 0.61656123
ĠFor 4.261971
Ġaccurately 13.434358
Ġdescribing 2.346195
Ġthe 1.2575177
Ġint 1.0463024
on 0.0017489124
ation 0.17870869
Ġsystem 2.78909
, 0.856013
Ġvarious 5.3090963
Ġanalysis 6.3745365
Ġsystems 4.9167194
Ġand 2.8449779
Ġnot 7.8917756
ations 0.46844867
Ġhave 0.92110527
Ġbeen 0.041717935
Ġused 1.6414534
Ġwhich 4.8890266
Ġoften 5.212133
Ġhave 2.375981
Ġtheir 3.0540793
Ġown 0.35804176
Ġadvantages 3.3264701
Ġand 0.23942336
Ġdisadvantages 0.20322727
. 0.37596345
ĠThis 3.4884677
Ġessay 4.7470837
Ġwill 1.148093
Ġbasically 8.70121
Ġintroduce 3.7823732
Ġtwo 4.7728763
Ġof 1.5491084
Ġthe 0.7062964
Ġanalysis 6.2494802
Ġsystems 0.14605789
Ġ- 5.179602
Ġthe 1.7082088
Ġtraditional 4.963191
ĠBritish 6.206043
Ġanalysis 3.8768365
Ġof 2.6609502
ĠEnglish 3.8747969
Ġint 0.39311573
on 0.0004871615
ation 0.009288479
Ġpresented 7.4165235
Ġby 0.49399135
ĠPeter 6.97819
ĠRo 4.047294
ach 0.018242974
Ġ( 1.3913958
2000 0.56082267
) 0.1298738
Ġand 0.07501234
Ġthe 0.3013023
Ġrelatively 8.4895315
Ġnew 1.1437174
Ġnotation 7.5978403
Ġsystem 1.7060227
ĠTo 11.374366
BI 8.293902
Ġused 5.19087
Ġwidely 8.84241
Ġin 0.8833671
Ġthe 0.8052246
ĠU 4.541865
. 0.009382391
S 0.055002697
.; 6.5780506
Ġfurthermore 7.001826
, 0.327013
Ġit 1.1158574
Ġattempts 5.5070972
Ġto 0.029673096
Ġevaluate 5.3961606
Ġthe 0.51604986
Ġbenefits 4.805778
Ġand 0.3589446
Ġdrawbacks 1.1001062
Ġof 0.07699808
Ġthose 6.1250143
Ġtwo 0.921049
Ġsystems 0.58337486
Ġby 3.7171443
Ġa 4.8499155
Ġcomparison 1.7388936
Ġbetween 2.4998074
Ġthem 1.3020806
. 0.40622163
ĠAs 5.1120086
Ġa 1.4644412
Ġkind 6.9720397
Ġof 0.018748626
Ġaut 11.3755865
ose 3.7904053
gment 0.56880695
al 0.45815253
Ġapproach 4.1767054
Ġto 1.6937677
Ġthe 1.28987
Ġint 1.7791083
on 0.0012273083
ation 0.03857809
Ġsystem 0.7261903
, 0.18528719
ĠTo 1.6101227
BI 0.0026667083
Ġis 1.3622817
Ġoriginated 9.948198
Ġby 0.60815406
ĠPierre 7.3517528
h 10.384927
umber 0.4369361
t 0.04251457
Ġ( 4.068733
1980 3.8416374
: 5.7795634
Ġ87 7.309745
Ġin 8.700342
ĠCr 9.411434
utt 5.865771
end 0.055164114
en 0.027537698
Ġ1997 4.757806
) 1.097972
Ġand 0.5760254
Ġused 3.9704967
Ġmostly 5.0784187
Ġin 0.37059456
Ġthe 0.6085631
ĠAmerican 4.735081
Ġacademic 5.118987
Ġresearch 3.8733354
. 1.2904094
ĠIt 2.1663475
Ġapplies 6.6813493
Ġonly 4.100474
Ġtwo 3.6638567
Ġtones 6.605225
, 2.0237086
ĠHigh 9.080278
Ġ( 3.0029652
H 2.7444682
) 0.17492524
Ġand 0.048676815
ĠLow 0.02854325
Ġ( 0.010822495
L 0.020130828
) 0.97956365
Ġto 2.2600884
Ġthe 1.2766929
Ġanalysis 6.0547175
Ġand 3.5017734
Ġpresents 5.966591
Ġa 1.4883573
Ġquite 6.2213454
Ġnew 5.1316023
Ġview 5.1771455
Ġof 0.8483008
Ġthe 1.1963516
Ġint 0.51866287
on 0.0015269405
ation 0.029945439
Ġsystem 0.28417388
. 0.74576473
ĠIt 2.5589538
Ġis 1.1170915
Ġnecessary 7.012986
Ġto 0.07416022
Ġintroduce 3.5690281
Ġfive 7.169041
Ġtypes 3.9101815
Ġof 0.030117603
Ġsymbols 5.8369737
Ġused 2.4352224
Ġin 0.45281917
ĠTo 1.3483057
BI 0.0013443439
Ġ( 2.8259094
Cr 2.2230508
utt 0.015316201
end 0.0006126357
en 0.0019947055
Ġ1997 0.1293442
: 1.1683315
Ġ60 5.7722797
): 2.0523362
ĠOther 9.766756
Ġsymbols 2.0531209
Ġsuch 4.2520623
Ġas 0.004493158
Ġ' 4.197698
ĠTherefore 12.394965
, 1.5797187
Ġif 4.8458476
Ġthe 1.7051739
Ġtone 4.1541634
Ġunit 7.6533303
Ġ( 3.6425765
2 6.8311014
) 1.0486009
Ġis 0.59074247
Ġanalyzed 5.158269
Ġin 2.1550972
ĠTo 2.6982644
BI 0.003425522
, 0.41894513
Ġit 1.2446283
Ġmay 3.562386
Ġbe 0.51793903
Ġlike 8.705634
Ġthis 1.6357958
. 3.516567
Ġ( 3.2166705
2 2.0044591
) 0.075328745
Ġ( 3.638602
10 6.216898
) 0.33760828
ĠAfter 7.1407375
Ġthe 1.69361
Ġrough 10.2613945
Ġintroduction 3.601212
Ġof 0.54688144
Ġboth 6.7168317
Ġsystems 2.6922479
, 0.42232236
Ġthe 1.5153985
Ġadvantages 5.901391
Ġand 0.65160793
Ġdisadvantages 0.19573744
Ġof 0.21267481
Ġeach 0.6070431
Ġcan 4.0930605
Ġbe 0.03732514
Ġnoticed 7.5285726
Ġwith 4.8592324
Ġa 1.8148781
Ġcomparison 2.3394113
Ġbetween 0.846282
Ġthem 0.61291623
. 0.25754318
Ġ1 5.288169
. 0.24686642
ĠThe 1.8565124
Ġapplication 8.685896
Ġof 0.081362344
Ġdifferent 5.5646524
Ġnot 6.079067
ations 0.022966767
Ġusually 7.3696775
Ġconve 9.482638
ys 0.005893497
Ġa 1.7626952
Ġdirect 6.5264516
Ġimpression 4.1756315
Ġto 2.6903908
Ġreaders 5.7351007
. 1.198159
ĠUnd 10.593555
en 3.0666807
iably 0.10031478
, 0.097294115
Ġthe 1.3004344
Ġsymbols 6.7109485
Ġsuch 6.024668
Ġas 0.0037009856
Ġ' 0.7260453
Ġ', 8.448802
Ġ' 0.22765253
Ġ' 1.30985
Ġand 0.88064235
Ġ' 0.24306192
Ġ' 0.26911932
Ġdo 4.114339
Ġprovide 4.217554
Ġa 0.96544266
Ġsimple 4.5123115
Ġand 1.0326153
Ġvisual 6.8063073
Ġguidance 8.06079
Ġfor 1.7555716
Ġthe 0.49786544
Ġreaders 2.9721153
Ġof 3.2942104
Ġcourse 6.608724
Ġwith 6.4044266
Ġappropriate 7.427876
Ġexplanation 5.1586637
Ġbut 3.9008594
Ġare 4.281552
Ġquite 4.1447067
Ġdifficult 2.0735157
Ġto 0.18746291
Ġtype 7.560077
Ġin 2.0032678
Ġcomputers 8.110411
. 0.70408046
ĠCont 10.593196
rarily 2.0037143
, 0.16318089
Ġ' 3.9903018
Ġ* 7.1997237
Ġ' 0.77405226
Ġ' 3.3013704
Ġ! 8.000008
Ġ', 3.5354512
Ġ' 0.22670698
Ġ% 4.265564
Ġ', 1.7832288
Ġetc 4.0436053
. 0.3786569
Ġare 1.3413762
Ġquite 2.383638
Ġmeaningless 8.093111
Ġand 1.6940467
Ġabstract 8.260363
Ġcodes 8.662552
Ġwhich 2.1047337
Ġare 1.6223493
Ġdifficult 1.6274116
, 6.1401296
Ġespecially 4.2854733
, 3.4932747
Ġfor 1.1244657
Ġlearners 5.925677
Ġto 1.6642182
Ġremember 3.9917657
, 3.0741966
Ġwhich 3.7667105
Ġis 1.8520224
Ġalso 3.659621
Ġagreed 9.125039
Ġby 0.7332179
ĠRo 2.3136015
ach 0.0008066679
Ġ( 0.2657424
2000 0.09176172
) 2.4061887
Ġand 1.155749
Ġ( 6.48091
Cr 2.550248
utt 0.013312978
end 0.0004698068
en 0.0041915607
Ġ1997 0.03734315
); 6.8832364
Ġhowever 2.5812733
, 0.03353725
Ġthe 1.7726578
Ġsystem 5.4677043
Ġis 1.9244152
Ġeasy 4.342096
Ġto 0.2383425
Ġbe 3.6241412
Ġused 1.4200107
Ġin 1.9680989
Ġcomputers 3.3312767
. 1.3419299
Ġ2 1.7790086
. 0.0049906494
ĠFor 4.541363
Ġthe 1.3456033
Ġattempt 9.343868
Ġto 0.3512941
Ġdescribe 2.9209468
Ġthe 0.5271624
Ġnatural 6.9860086
Ġspeech 2.0795767
, 1.6956432
Ġthe 1.2473822
ĠRo 8.208171
ach 0.004397246
's 1.9898554
Ġsystem 1.9834961
Ġseems 5.195339
Ġto 0.5969222
Ġhave 3.0155451
Ġmore 2.6189451
Ġlimitation 8.922143
Ġthan 1.054066
ĠTo 2.118292
BI 0.0011830303
. 1.1046653
ĠOne 5.005561
Ġis 4.1786275
Ġthe 1.1308568
Ġanalysis 7.092912
Ġon 6.757664
Ġmore 6.7530684
Ġthan 0.18560453
Ġone 0.7150675
Ġtone 0.5594897
Ġmovement 10.261514
Ġin 2.7559419
Ġa 1.5464401
Ġtone 3.8107803
Ġunit 0.96335053
. 1.1502739
ĠRo 4.2153215
ach 0.0010947746
Ġgenerally 7.958106
Ġsummarizes 7.682274
Ġfive 6.6095676
Ġsituations 6.928729
Ġas 4.501269
Ġmentioned 5.793541
Ġabove 1.7869769
; 3.3339722
Ġnevertheless 4.5374827
, 0.044930976
Ġthe 1.6606623
Ġnatural 6.308218
Ġint 4.5170093
on 0.0011571911
ation 0.016283315
Ġsystem 2.032989
Ġis 1.632283
Ġnot 1.8000754
Ġas 3.1333807
Ġsimple 2.1315799
Ġas 0.42663753
ĠRo 2.772184
ach 0.0019199955
's 0.7092002
Ġgeneral 8.471264
ization 1.7690402
. 1.1977891
ĠConsidering 6.7831645
Ġthe 0.5984498
Ġfollowing 4.9257436
Ġexample 2.0375745
Ġ( 3.2261858
11 3.934469
) 1.0741321
Ġindicated 9.005084
Ġin 1.3905177
ĠTo 2.5399334
BI 0.0028876816
Ġsystem 6.7451205
Ġby 5.3875656
ĠCr 4.0261726
utt 0.006199325
end 0.0005147109
en 0.0004983709
Ġ( 0.6579793
1997 0.022074101
: 0.667142
Ġ63 3.4112833
), 0.58745223
Ġit 1.8577342
Ġis 0.9173179
Ġdifficult 4.0257263
Ġto 0.12954792
Ġuse 4.4038963
ĠRo 2.292535
ach 0.0037684722
's 0.08227623
Ġsystem 0.4903768
Ġto 2.08383
Ġanalyze 2.826457
Ġthe 0.7218712
Ġtone 4.34469
Ġunit 1.2482127
. 1.8469421
Ġ( 2.0981412
11 0.1834079
) 0.014550381
ĠAccording 7.232943
Ġto 0.010282109
ĠRo 1.5098385
ach 0.0015588162
Ġ( 1.16991
2000 0.06675385
), 1.703893
Ġthere 3.6981509
Ġis 1.3310486
Ġonly 2.3449721
Ġone 0.33195013
Ġtone 1.7223239
Ġmovement 2.016071
Ġcarried 8.539568
Ġby 1.4361613
Ġthe 0.7225675
Ġton 4.9826093
ic 0.85037225
Ġsyll 3.0194733
able 0.030292805
, 2.223849
Ġso 3.37096
Ġthe 1.3194968
Ġpart 7.1625595
Ġfrom 5.8964376
ĠThus 11.617976
Ġthere 4.106346
Ġshould 4.4092097
Ġbe 0.16787566
Ġno 2.469094
Ġtone 2.9442735
Ġmovement 0.38732988
Ġbefore 5.6544147
Ġthe 0.49380937
Ġton 0.92620146
ic 0.004238547
Ġsyll 0.22297189
able 0.010887812
Ġcarrying 9.476667
Ġa 2.953916
Ġrising 6.8219447
Ġtone 0.53939635
Ġsuch 6.027336
Ġas 0.02546126
Ġ( 3.3450184
9 4.52053
a 4.6756625
), 2.6522598
Ġbut 4.1490054
Ġit 2.4632492
Ġdoes 3.697465
Ġnot 1.2819766
Ġmake 5.867779
Ġsense 0.52683717
Ġin 2.7595134
Ġ( 2.8852105
11 0.46690202
). 0.65176105
ĠThe 2.3304772
Ġpossible 6.638673
Ġsolution 3.5266263
Ġis 1.0850036
Ġeither 5.8055134
Ġto 0.7694224
Ġadmit 7.9504204
Ġthe 1.3888934
Ġexistence 3.672447
Ġof 0.020042282
Ġmore 3.4614904
Ġthan 0.3470612
Ġone 0.046905905
Ġton 3.0651424
ic 0.03739803
Ġsyll 0.12497894
able 0.019520901
Ġin 1.8456733
Ġa 1.3766975
Ġtone 0.24927197
Ġunit 0.031027861
, 1.0697583
Ġas 3.653909
Ġthe 3.2648091
Ġproblem 4.9428463
Ġraised 7.6162643
Ġby 0.5266411
ĠRo 0.7735666
ach 0.0007972429
Ġhimself 6.597665
Ġ( 0.9801241
2000 0.4299458
: 0.73550004
Ġ178 7.4332747
) 1.5710309
Ġor 0.49554956
Ġto 0.48242733
Ġdivide 5.6800184
Ġ( 5.483516
11 1.5209134
) 0.07316524
Ġinto 0.16823852
Ġthree 2.3987646
Ġtone 2.0174384
Ġunits 0.69907355
Ġbut 7.764485
Ġit 3.8252146
Ġwill 4.2426467
Ġlooks 11.0288725
Ġquite 2.9557555
Ġfar 6.455435
fetched 4.88732
. 1.182063
ĠAnother 4.7568445
Ġlimitation 2.2810912
Ġis 1.3361464
Ġto 4.581743
Ġanalyze 2.5353496
Ġthe 1.0190935
Ġdetail 10.066317
Ġin 3.4871304
Ġa 2.1113997
Ġrising 9.350641
Ġor 3.6033704
Ġa 3.5676622
Ġfalling 0.2561048
Ġpitch 5.8268523
Ġmovement 4.4113765
, 2.0671487
Ġfor 3.4977417
Ġinstance 2.1454213
, 0.47143817
Ġthe 1.7506132
Ġhigh 5.829891
Ġfall 8.240134
Ġand 3.1638267
Ġlow 1.5699613
Ġfall 1.5740291
. 2.4931197
ĠAs 3.7317307
Ġshown 4.3358173
Ġin 0.32934046
Ġthe 1.5949996
Ġexample 1.62277
Ġ( 0.44622955
4 5.326771
) 0.6183926
Ġwhere 6.209388
ĠIn 7.135877
Ġcontrast 4.601775
, 0.62611026
ĠTo 1.4836535
BI 0.0018818356
Ġhas 3.021572
Ġa 1.6169136
Ġcon 10.088562
natural 8.6433
Ġmerit 12.638848
Ġfrom 5.713928
Ġits 3.0456731
Ġsimple 4.36182
Ġstructure 3.2312453
Ġthat 4.5179553
Ġit 1.4083474
Ġis 1.5819992
Ġmore 3.7541177
Ġflexible 2.653377
Ġto 2.9979777
Ġdescribe 3.093677
Ġdifferent 3.7650292
Ġlevels 4.0553203
Ġof 0.16206336
Ġthe 2.3271239
Ġpitch 3.6404014
Ġheight 9.46449
. 1.3662926
ĠSo 5.9935904
Ġa 4.5441017
Ġhigh 4.141475
Ġfall 2.3230538
Ġand 2.2696254
Ġa 0.33117914
Ġlow 0.32481647
Ġfall 0.07349304
Ġcan 1.9384917
Ġbe 0.18881488
Ġillustrated 6.149316
Ġpresented 10.213288
Ġas 2.1194904
ĠH 7.644923
* 4.995034
L 2.1305332
- 4.7749624
L 0.9961007
% 6.995958
Ġand 2.5104356
Ġ! 8.7306385
H 1.9098334
* 1.8372098
L 0.18676277
- 0.6539867
L 0.37965357
% 0.46679822
Ġin 2.9208486
Ġtone 7.074609
Ġunits 0.5178429
Ġ( 1.5127219
Cr 5.1692286
utt 0.0057084872
end 0.00040880483
en 0.01452504
Ġ1997 0.04885794
: 0.05370028
Ġ63 1.8042428
). 0.4395025
ĠHence 6.066394
, 0.13678052
ĠTo 1.6311737
BI 0.0010483507
Ġseems 4.1206965
Ġable 6.619473
Ġto 0.04207999
Ġbe 2.5295281
Ġapplied 1.8419465
Ġmore 3.0062585
Ġsuccessfully 5.0211277
Ġand 3.945565
Ġextensively 6.349488
Ġin 1.3405687
Ġthe 0.973707
Ġdescription 4.869575
Ġof 0.06324633
Ġint 2.1086895
on 0.0016878325
ation 0.051969066
Ġin 2.4845073
ĠR 9.570078
. 2.3952668
P 4.467266
., 3.9252596
ĠG 5.0617065
. 0.16158488
A 3.2014441
. 0.4076873
Ġand 0.98209697
ĠAustralian 8.542985
ĠEnglish 1.4535687
Ġ( 2.1916764
Cr 1.8702015
utt 0.007686376
end 0.0002965309
en 0.00041912153
Ġ1997 0.04726253
) 3.3326368
Ġalthough 4.6859694
Ġit 1.3754799
Ġhas 2.4015727
Ġnot 2.9931245
Ġbeen 0.6464203
Ġapplied 2.347271
Ġvery 4.4364
Ġwell 2.9392645
Ġinto 6.9449677
Ġall 6.4543686
Ġthe 1.4736139
Ġint 4.424642
on 0.008751207
ation 0.19897138
Ġsystems 1.0303335
Ġin 2.1785822
Ġa 5.6551867
Ġstatistic 12.734876
Ġresult 9.51128
Ġ( 1.7569262
Ohio 11.68272
ĠState 1.3269708
ĠUniversity 0.23935695
ĠDepartment 5.091709
Ġof 0.015538654
ĠL 1.0011463
ingu 0.017004026
istics 0.010487967
Ġ2004 4.7794013
). 0.52661186
Ġ3 1.4290148
. 0.0051766066
ĠWith 5.4415145
Ġthe 0.9773808
Ġdrawback 6.2316713
Ġin 4.4116173
ĠRo 2.9245763
ach 0.0021056202
's 0.33151677
Ġsystem 0.7180322
Ġdisc 12.497924
ss 10.755092
ed 3.9648354
Ġabove 0.62134004
, 0.17931715
Ġit 1.9068345
Ġstill 5.581149
Ġhad 6.710706
Ġthe 2.4807997
Ġbenefit 4.1231065
Ġof 0.35611936
Ġits 3.6521485
Ġsimple 2.9772575
Ġgeneral 6.9683824
ization 0.11065482
Ġabout 5.337136
Ġthe 0.79972637
Ġint 0.98584735
on 0.0026370648
ation 0.011027319
Ġbecause 7.4528904
Ġit 0.73596776
Ġprovided 5.367332
Ġa 0.59303725
Ġcomparatively 8.436958
Ġclear 3.050637
Ġprofile 8.752794
Ġof 0.5698518
Ġthe 0.5516444
Ġreal 6.462912
Ġsystem 7.6444125
Ġwith 4.222233
Ġstraightforward 7.3428607
Ġnot 3.891908
ations 0.19013199
Ġand 2.0427682
Ġestablished 8.157287
Ġan 3.7792203
Ġeasy 2.8915498
Ġaccess 4.6656013
Ġto 0.47592726
Ġthe 0.47642693
Ġcomplicated 7.5505133
Ġint 2.5609891
on 0.0030347444
ation 0.04457929
Ġsystem 0.85965073
, 3.8370352
Ġat 5.3115835
Ġleast 0.38105464
Ġfor 1.2896122
Ġthe 0.98535264
Ġlearners 3.91163
. 0.7926379
ĠNonetheless 7.1187916
, 0.023749735
ĠTo 1.5890228
BI 0.0018313756
Ġfocuses 8.028408
Ġon 1.0531032
Ġa 1.9210253
Ġfull 7.5602055
- 2.1767397
scale 1.7966063
Ġdescription 1.0746452
Ġand 3.2895865
Ġmakes 5.7047796
Ġit 1.9360965
Ġa 3.5809534
Ġlittle 3.2144687
Ġdifficult 2.0564642
Ġto 0.37426314
Ġsummarize 6.164003
Ġthe 0.80915797
Ġanalysis 4.9858484
Ġresults 4.3830047
Ġand 3.2126021
Ġpoint 6.508046
Ġout 0.54306155
Ġthe 0.549005
Ġoutline 10.460919
Ġof 0.2072042
Ġthe 0.35181177
Ġwhole 3.4623854
Ġsystem 0.75538033
. 0.58101547
ĠTo 2.6414
Ġsum 8.825363
Ġup 0.20604469
, 0.2348868
Ġthis 3.9946105
Ġessay 0.85194886
Ġoutlined 10.861039
Ġthe 0.57707536
Ġwhole 7.037678
Ġstructure 3.2716188
Ġof 0.27285814
ĠEnglish 3.8842912
Ġint 0.084431015
on 0.00085600157
ation 0.0010022292
Ġby 3.5030272
Ġcomparison 5.395958
Ġbetween 0.9664771
Ġthe 0.98749506
Ġtraditional 2.147672
Ġanalysis 4.146674
Ġsystem 3.2481163
Ġused 4.699051
Ġin 0.9062527
ĠRo 2.9284282
ach 0.0044830386
Ġ( 1.752999
2000 0.063618116
) 0.14052224
Ġand 0.06016749
Ġthe 0.56231415
ĠTo 1.8786386
BI 0.0026731044
Ġsystem 0.7591461
Ġwidely 6.9760423
Ġused 0.20041154
Ġin 0.27964085
ĠAmerica 4.92593
. 0.5916871
ĠThe 1.8627234
Ġtraditional 4.7866592
Ġsystem 2.3465936
, 3.1890366
Ġbased 3.7044358
Ġon 0.07681759
Ġthe 0.9516847
Ġconcepts 6.6820884
Ġof 0.3872088
Ġtones 6.3880067
Ġand 0.7832644
Ġunits 5.5246935
, 0.5091256
Ġis 1.7596953
Ġeasy 4.139765
Ġto 0.08563281
Ġread 4.287103
Ġand 0.4940642
Ġunderstand 1.8309134
Ġwith 4.468062
Ġthe 1.7319695
Ġuse 3.6326213
Ġof 0.005667486
Ġvisual 7.3910265
Ġsymbols 2.143542
Ġand 1.6866922
Ġcan 4.4165626
Ġprovide 3.7233944
Ġrather 8.411164
Ġprimary 11.0541525
Ġand 2.374274
Ġclear 2.49279
Ġcont 8.268304
our 2.243414
Ġabout 6.855031
Ġthe 0.15849702
Ġwhole 3.4106576
Ġsystem 0.6377123
Ġalthough 6.214554
Ġit 0.8578633
Ġmay 2.353509
Ġfail 4.4864926
Ġto 0.45687908
Ġanalyze 4.994551
Ġsome 3.1400487
Ġphenomena 6.283756
Ġin 2.2617185
Ġthe 1.0695359
Ġchange 8.296888
ful 9.815859
Ġreality 6.67674
Ġand 4.1993737
Ġthe 2.5966122
Ġinconvenience 10.374231
Ġin 2.8902433
Ġthe 1.1183904
Ġcomputer 7.800509
Ġinput 5.437426
Ġprocess 4.1395817
. 0.39919615
ĠIn 3.0053635
Ġcontrast 1.1563271
, 0.18365598
Ġthe 0.81774026
Ġflexible 10.215771
Ġsystem 2.8207264
ĠTo 3.3791785
BI 0.0009747258
Ġmay 4.390784
Ġsucceed 7.238301
Ġto 2.1669033
Ġtrack 9.891185
Ġdetailed 8.519213
Ġinformation 2.3738434
Ġoccurring 10.339338
Ġin 0.3138653
Ġspeech 4.322562
Ġand 1.5787388
Ġgive 4.1784725
Ġa 0.98343426
Ġcomparatively 7.6146626
Ġaccurate 3.122297
Ġdescription 1.3604298
; 5.9407806
Ġhowever 0.9666591
, 0.033856947
Ġthere 3.9100683
Ġare 0.90305734
Ġmany 3.001449
Ġabstract 9.797224
Ġsymbols 3.1462083
Ġrequiring 8.046752
Ġadequate 7.3730655
Ġcomprehension 6.026918
Ġalthough 8.005494
Ġit 1.0992217
Ġis 1.170799
Ġsimple 5.612454
Ġfor 3.6852698
Ġcomputer 4.75715
Ġoperation 6.095436
. 0.43726915
ĠTherefore 4.147519
, 0.06329142
Ġif 5.419668
Ġthe 1.0394652
Ġfirst 6.300702
Ġsystem 2.335853
Ġis 0.7527468
Ġsupposed 7.0323553
Ġto 0.035320528
Ġbe 0.5737358
Ġeasy 4.5818667
Ġfor 2.8750749
Ġa 2.9585187
Ġgeneral 3.8084826
Ġintroduction 5.3750134
Ġand 2.201095
Ġfundamental 8.42352
Ġlearning 5.527753
, 1.1132909
Ġthen 2.1361227
Ġthe 0.5852483
Ġsecond 0.9228823
Ġone 2.0838642
Ġis 1.3465716
Ġmore 2.1279237
Ġsuitable 0.99873734
Ġfor 0.48734105
Ġadvanced 3.4680057
Ġresearch 4.9747915
Ġto 5.6056714
Ġcertain 9.447278
Ġextent 1.5663785
; 3.1811438
Ġnevertheless 2.3097787
, 0.04129302
Ġthey 5.5075955
Ġboth 2.141996
Ġhave 1.545982
Ġlimitation 9.537476
Ġin 1.4186486
Ġdifferent 4.42974
Ġaspects 0.8019336
. 0.784132
ĠThere 5.5023036
Ġare 0.9492104
Ġstill 3.8526776
Ġother 3.833208
Ġways 4.805408
Ġof 1.4847498
Ġdescribing 1.687807
Ġthe 0.861398
Ġnatural 3.2398534
Ġspeech 0.86403185
Ġand 2.3789828
Ġwill 6.8735466
Ġbe 0.40403965
Ġmore 5.006949
; 12.6939335
Ġinevitably 9.985339
Ġthose 8.151532
Ġmethods 2.49013
Ġwill 1.0593749
Ġprobably 5.0635047
Ġhave 2.2110217
Ġtheir 1.486117
Ġown 0.51481813
Ġmerits 4.3058863
Ġand 0.35693055
Ġshortcomings 3.276032
Ġin 3.012898
Ġdifferent 2.861441
Ġaspects 2.4777727
Ġas 3.8879797
Ġwell 0.49679264
. 0.25782412
ĠHowever 3.7806554
, 0.025061904
Ġwith 4.840637
Ġthe 0.5612407
Ġcontinuous 7.138222
Ġdevelopment 1.9009937
Ġin 2.4642925
Ġint 5.0107536
on 0.0038714458
ation 0.011540313
Ġresearch 1.8563294
, 0.5464506
Ġthe 1.7258596
Ġtrue 7.197331
Ġface 7.2081103
Ġof 0.0827682
Ġthis 4.047964
Ġcomplicated 6.2131424
Ġand 2.4222913
Ġattractive 8.491848
Ġsystem 1.1922679
Ġwill 1.0309607
Ġbe 1.0754817
Ġunfolded 6.9846487
Ġone 5.0595326
Ġday 0.1203751
. 0.87161756
