Today 6.465279
, 1.4669977
Ġsome 6.2326384
Ġconsider 8.345633
Ġthat 3.6852636
Ġ' 6.976941
there 6.961805
Ġis 0.8715028
Ġno 0.5850325
Ġsuch 1.8449373
Ġthing 0.05357947
Ġas 0.18356538
Ġ' 4.147266
Greek 9.156531
Ġreligion 6.6543303
''. 8.73546
ĠIn 3.3898609
Ġ' 6.397075
On 7.0997653
Ġmaking 11.504536
Ġsense 4.7258697
Ġof 0.16663274
ĠGreek 2.5525265
Ġreligion 1.4228184
' 0.938515
ĠJohn 5.8202977
ĠGould 8.84995
Ġdisputes 9.815457
Ġthe 2.5823717
Ġnotion 2.6801507
Ġthat 0.5437424
Ġwe 4.9295573
Ġcan 1.5967344
Ġsimply 4.342556
Ġ' 3.074896
make 2.4508731
Ġsense 0.025402565
' 1.0288866
Ġof 0.10874075
Ġthe 1.8961442
Ġevidence 6.766457
Ġleft 7.459426
- 6.4463835
Ġ' 8.404971
data 9.441668
Ġwhich 3.2532995
Ġwe 3.2252197
Ġput 6.505647
Ġtogether 0.6281045
Ġand 2.4022079
Ġcall 5.2039065
Ġ' 1.3667369
Greek 0.61414796
Ġreligion 0.34010068
': 5.8998117
Ġthe 3.3136613
Ġbest 5.4214997
Ġwe 2.1868868
Ġcan 0.10763516
Ġhope 3.159311
Ġfor 0.29958683
Ġwill 6.1637464
Ġbe 0.083705805
Ġno 7.887953
Ġmore 0.46269393
Ġthan 0.07614297
Ġpiece 9.515032
meal 0.12726414
Ġexplanations 4.4320054
Ġof 1.2996095
Ġa 3.0494754
Ġparticular 5.5690746
Ġritual 5.804156
Ġor 2.3404365
Ġa 2.955797
Ġparticular 1.2838966
Ġmyth 3.8210588
' 4.5858464
ĠWe 7.493327
Ġhave 2.4989524
Ġan 4.3697057
Ġeven 5.249243
Ġless 3.343599
Ġprecise 5.006497
Ġidea 2.297686
Ġof 0.27834737
Ġthe 1.622729
Ġreasoning 8.775333
Ġbehind 0.84684813
ĠGreek 3.333915
Ġrituals 5.674418
- 6.2147613
Ġreligious 8.579799
Ġbelief 3.5387485
, 2.4694805
Ġas 3.2875872
Ġwith 6.2858534
Ġother 2.7994516
Ġaspects 4.5379705
Ġof 0.0215974
Ġancient 3.5298078
Ġcultures 5.095221
, 0.5567483
Ġleaves 8.5696745
Ġlittle 2.7344458
Ġphysical 7.6147604
Ġevidence 0.6357189
Ġremaining 7.8588614
. 1.3077574
ĠWe 3.1482744
Ġdo 2.5365944
Ġknow 1.8262776
Ġthat 0.4618183
Ġmuch 6.2785163
Ġof 0.43743378
ĠGreek 2.5135684
Ġreligion 0.9410671
Ġwas 1.017781
Ġsecretive 8.0619135
Ġand 1.0143002
Ġan 7.2325344
Ġen 6.7943244
igma 0.048392687
Ġto 1.6556947
Ġthe 1.023736
Ġunin 2.1078134
iti 0.040674023
ated 0.013604648
Ġeven 7.32037
Ġat 3.575433
Ġthe 0.47338393
Ġtime 0.9210096
, 3.5256872
Ġwith 4.236325
Ġwidespread 7.9819226
Ġsecret 6.273657
Ġcult 2.9947064
s 0.12909777
Ġand 1.043178
Ġ' 4.1024084
my 2.6422758
ster 0.65921384
ies 0.3854363
'. 2.4163225
ĠIt 3.4628634
Ġis 0.6460585
Ġalso 3.0046713
Ġdifficult 4.6534643
Ġto 0.09766286
Ġcome 4.815861
Ġto 0.6893656
Ġconclusions 3.8580034
Ġon 3.03007
Ġ' 4.022733
Greek 1.5814561
Ġreligion 0.27534077
', 2.418509
Ġas 1.9414786
Ġthe 1.9084165
Ġarea 8.092414
Ġwe 4.415212
Ġnow 4.031892
Ġcall 1.1625973
ĠGreece 3.0096884
Ġwasn 6.9873514
't 0.010913543
Ġa 2.8073165
Ġunified 2.5810006
Ġcountry 2.6620915
Ġuntil 1.1331774
Ġlong 4.0010734
Ġafter 0.07003
Ġthe 0.5280187
Ġ5 4.84219
th 0.022268014
Ġcentury 0.17034023
ĠBC 0.46662265
, 1.5309532
Ġrather 7.2535934
Ġan 4.9899516
Ġarea 1.3492773
Ġof 0.8337743
Ġland 6.2213206
Ġon 4.3623786
Ġwhich 2.1776788
Ġseparate 5.829434
Ġcity 4.82135
Ġstates 1.236377
Ġco 3.752196
- 1.0986496
ex 0.095931664
isted 0.00064394815
. 0.8105933
ĠAlthough 5.649607
Ġit 2.9219806
Ġseems 3.3864899
Ġthere 4.8439274
Ġwere 2.0860493
Ġbeliefs 6.400758
Ġcommonly 8.099608
Ġheld 0.68848634
Ġacross 3.3404474
ĠGreece 3.1386285
, 0.48699093
Ġwe 2.5077329
Ġcan 2.3679838
't 0.95607674
Ġassume 5.3101144
Ġthere 3.833623
Ġwas 0.72916913
Ġreligious 5.7798376
Ġuniform 3.8555222
ity 0.0007238752
. 2.035446
ĠTo 5.1687675
Ġcompound 7.3880844
Ġthis 1.2255932
, 1.0757273
Ġunlike 7.4338493
Ġreligions 5.706263
Ġmore 5.994775
Ġfamiliar 4.1993423
Ġto 0.25730145
Ġus 0.77287686
, 0.56367284
Ġthere 2.1744099
Ġwas 1.9220774
Ġa 2.236341
Ġlack 2.0319896
Ġof 0.005815497
ĠGreek 4.869153
Ġscripture 6.7314634
Ġor 3.4329128
Ġan 4.766495
Ġ' 4.0685163
organ 6.215331
ised 0.75915706
Ġbody 3.3706748
' 2.7140064
Ġto 2.2931695
Ġdictate 8.010569
Ġstandard 7.8858066
Ġpractice 3.0817873
. 0.648969
ĠGreek 3.4500525
Ġreligion 0.7801444
Ġwas 0.9997764
Ġ' 3.9670918
an 3.1252482
Ġopen 3.9555604
, 2.0691504
Ġnot 6.3322105
Ġa 1.1450856
Ġclosed 0.118592136
Ġsystem 2.0029685
' 1.2259737
ĠSo 6.484044
Ġit 3.4790545
Ġseems 1.5087761
Ġthat 1.0327424
Ġthe 1.9739279
Ġanswer 5.1908407
Ġto 0.3522906
Ġthe 0.88109934
Ġquestion 0.32316318
Ġ' 1.3592948
Why 3.291446
Ġdid 2.0769083
Ġthe 1.662928
ĠGreeks 0.28706962
Ġperform 4.9500036
Ġsacrifice 6.017717
?' 0.56298906
Ġis 0.79326886
Ġunlikely 7.722325
Ġto 0.121831544
Ġbe 0.22478966
Ġsimple 3.4467535
. 0.83733606
ĠThis 3.5409784
Ġessay 7.1972075
Ġwill 1.5200223
Ġtrace 5.2816043
Ġthe 0.5375683
Ġemergence 5.0443997
Ġof 0.1544631
ĠGreek 0.90328634
Ġsacrifice 3.1671512
Ġfrom 2.4667323
Ġprehistoric 5.479803
Ġtimes 1.0218664
Ġto 1.0038167
Ġthe 0.31116104
Ġ5 4.7959275
ĠThe 16.07187
Ġideas 7.8575053
Ġbehind 2.696135
Ġsacrifice 2.8830438
Ġcan 3.8738418
Ġbe 0.14497726
Ġtraced 0.42866638
Ġback 0.48006368
Ġto 0.22773029
Ġprehistoric 3.536835
ĠGreece 2.1567476
. 1.0498064
ĠBy 4.865044
Ġthe 0.6086445
ĠPal 7.3550906
ae 0.20972018
olithic 0.010007057
Ġperiod 1.5761741
, 0.79164106
Ġor 5.085884
Ġeven 3.4954023
Ġprior 5.4179
Ġto 0.33966318
Ġit 2.7953691
, 0.08876505
Ġmainland 12.13652
ĠGreece 0.6036351
Ġwas 0.98448163
Ġpopulated 3.881765
Ġby 0.2547053
Ġnom 3.5255973
ads 1.8759259
Ġfrom 3.5180655
Ġcentral 4.6142516
ĠAsia 0.43457046
, 1.4638346
Ġwho 1.5873227
Ġlived 3.117624
Ġin 0.538382
Ġhunter 5.1716294
Ġg 1.9597409
at 0.0041039353
herer 0.10023841
Ġsocieties 1.5007967
. 0.7379887
ĠBur 8.053732
ket 12.466842
Ġhas 4.990739
Ġput 5.8229747
Ġforth 3.1826823
Ġthe 0.74696326
Ġidea 1.3878777
Ġthat 0.12390864
Ġlater 8.189066
Ġritual 7.5019417
Ġsacrifice 3.3881388
Ġwas 1.0570022
Ġrooted 6.582311
Ġin 0.03573525
Ġthis 2.8838203
Ġearly 2.8257823
Ġ' 4.061816
condition 10.373955
Ġof 2.2079108
Ġman 4.5881186
Ġthe 10.410181
Ġhunter 0.63408536
', 2.2154841
ĠIt 8.743672
Ġalso 4.141384
Ġseems 1.9116547
Ġthat 1.072027
Ġthese 4.985708
Ġnom 1.1939222
ads 0.5427889
Ġplaced 8.311048
Ġreligious 5.557871
Ġsignificance 1.7975262
Ġon 0.43643245
Ġthe 0.95281917
Ġsky 8.963199
, 1.2584856
Ġthe 2.1992724
Ġonly 7.5677376
Ġconstant 5.5771785
Ġaspect 5.1792326
Ġof 0.08276839
Ġtheir 1.1569747
Ġlandscape 5.6494308
. 0.6996982
ĠThis 2.3707864
Ġseems 5.048288
Ġa 3.7742124
Ġlikely 4.254265
Ġorigin 4.384761
Ġof 1.3377795
Ġthe 0.85631204
Ġlater 5.7719684
Ġbelief 3.781256
Ġthat 1.0835843
Ġthe 0.66902363
Ġgods 3.1944594
Ġdw 7.0719743
elt 0.004092145
Ġhigh 7.4855466
Ġon 2.8901677
ĠMount 2.6672983
ĠOlympus 0.43440297
. 0.86736166
ĠE 7.5380516
ty 2.801379
m 0.006822124
ological 2.3177962
Ġlinks 4.9778266
Ġabound 6.049886
Ġtoo 5.337028
; 3.3610168
Ġthe 1.3281938
Ġword 1.8892978
Ġ' 0.39018255
Z 8.084542
eus 0.059880454
' 0.11419083
Ġhas 3.1985102
Ġits 4.2585583
Ġroots 1.132403
Ġin 0.037165157
Ġthe 0.72189313
ĠOld 5.079641
ĠInd 7.4111385
ic 0.08374196
Ġword 1.3796203
Ġ' 0.6041634
dev 6.4156446
ah 4.9805856
', 1.0837276
Ġwith 5.527107
Ġthe 0.9891312
Ġnames 7.9014235
Ġof 1.2348952
Ġother 4.714628
ĠOlymp 6.769828
ians 1.9074396
Ġsuch 2.3770177
Ġas 0.005180501
ĠHera 6.251388
, 1.1820655
ĠAres 3.4999962
Ġand 0.7136308
ĠPose 1.7089756
idon 0.0035181139
Ġ' 5.9115047
formed 10.06917
Ġform 8.489773
ĠIndo 10.351135
ĠEuropean 4.843771
Ġroots 4.67142
'. 1.638811
ĠBy 4.9039216
Ġthe 0.27002418
ĠNe 2.2524385
olithic 0.0023850196
Ġperiod 0.5273584
, 0.25934085
Ġthe 1.53312
Ġearly 6.1290154
ĠGreeks 2.8046868
Ġbegan 2.722761
Ġto 0.14841911
Ġform 5.6651564
Ġsettled 7.173723
Ġfarming 3.1430511
Ġcommunities 0.5732897
, 0.99531066
Ġagain 8.824348
Ġinfluenced 4.139375
Ġby 0.07519065
Ġthe 0.7769197
ĠEast 5.2651052
, 1.606595
Ġwhere 2.9829438
Ġfarming 3.161966
Ġwas 0.97068137
Ġfirst 4.3603077
Ġdiscovered 4.802265
. 0.39593345
ĠNone 8.903864
Ġof 0.19555941
Ġthe 1.23227
Ġdomest 7.596429
icated 0.016380558
Ġanimals 0.912789
Ġand 3.8844342
Ġ' 7.312662
gr 6.4654436
ains 0.5955687
, 6.156882
Ġbarley 4.623964
Ġand 0.89396894
Ġwheat 0.57037705
' 0.5388329
Ġrequired 6.5131855
Ġfor 5.353092
Ġthis 5.079526
Ġdevelopment 6.364009
Ġwere 0.97664356
Ġnative 3.477034
Ġto 0.07708087
ĠGreece 1.0868778
. 0.9428313
ĠNow 6.9370747
Ġthe 3.167205
ĠGreeks 2.2890236
Ġcould 4.4623213
Ġcultivate 3.9982717
Ġfood 4.02739
Ġand 2.7355235
Ġmanipulate 9.586539
Ġnature 3.8337862
- 4.042196
Ġyet 5.791476
Ġthe 2.124287
Ġsuccess 8.12373
Ġof 0.11935903
Ġthis 1.8911763
Ġwas 3.0372784
Ġsomewhat 5.2445717
Ġout 7.6655703
Ġof 0.20017569
Ġtheir 1.7847981
Ġcontrol 0.59171724
. 0.42932075
ĠA 4.590305
Ġgood 4.926331
Ġharvest 7.259504
Ġrelied 8.0393305
Ġon 0.34510338
Ġfavourable 5.8855124
Ġweather 0.3941534
Ġconditions 2.3127975
, 0.7578738
Ġnatural 6.648096
Ġforces 5.1587615
Ġthey 9.106494
Ġdidn 4.0423517
't 0.0025422275
Ġunderstand 2.3928657
. 1.6265222
ĠWhen 4.8994226
Ġtheir 5.2974277
Ġfarming 3.7244072
Ġefforts 5.2224092
Ġfailed 1.3764505
, 0.3857585
Ġthey 0.8898057
Ġmust 5.5458956
Ġhave 0.1362571
Ġquestioned 6.064236
Ġthe 1.5433415
Ġcause 4.957594
Ġof 1.3386465
Ġtheir 0.58453524
Ġmis 5.0750837
f 0.14271775
ortun 0.005648723
es 0.0007716535
, 1.3659873
Ġwondered 8.620794
Ġwhat 1.9478608
Ġhad 1.6904795
Ġsuch 12.239804
Ġcontrol 8.066165
Ġover 1.3054433
Ġthem 2.2046876
. 0.6861685
ĠThe 2.065103
Ġnatural 6.64509
Ġassumption 8.539037
Ġto 5.608443
Ġmake 2.5906258
Ġwas 0.8252917
Ġthat 0.44300914
Ġa 3.7854552
Ġhigher 6.016177
Ġpower 0.3642742
Ġwas 1.3697574
Ġdict 6.976056
ating 0.00031489186
Ġmatters 6.0510693
. 1.14596
ĠHow 6.1137767
Ġthen 2.7355084
Ġto 2.084189
Ġhave 7.0721655
Ġsome 5.63656
Ġcontrol 1.5090941
Ġof 3.1355224
Ġtheir 3.057542
Ġown 1.7930386
Ġlives 2.164566
? 0.61439
ĠBurk 11.144774
ert 2.3214262
Ġexplains 4.714793
Ġthat 0.9245054
, 3.5506701
Ġ' 1.3608822
In 3.603587
Ġdistress 12.432391
Ġand 2.5664685
Ġdanger 5.107148
Ġman 8.160488
Ġseeks 4.4029026
Ġto 1.9870477
Ġfind 2.3946345
Ġdeliver 8.799766
ance 0.010354436
Ġthrough 2.546138
Ġa 2.798726
Ġvoluntary 6.58455
Ġact 1.5618863
Ġof 0.609516
Ġren 6.7887115
unciation 0.029960733
... 4.5703545
ĠHe 4.9623733
Ġseeks 2.3757524
Ġto 0.8512285
Ġmaster 7.091704
Ġthe 1.5303056
Ġuncertainties 9.674817
Ġof 0.382772
Ġthe 2.0474057
Ġfuture 4.9629755
Ġby 2.088332
Ġmeans 4.2482967
Ġof 0.067387424
Ġa 1.140778
Ġself 4.593957
Ġimposed 5.511709
Ġ' 4.167479
if 7.68687
- 2.2651384
then 0.17734106
''. 9.297961
ĠIf 4.5335245
Ġefforts 11.834765
Ġwere 2.1284688
Ġmade 2.524274
Ġto 0.29147354
Ġappease 6.2742677
Ġforces 6.64924
Ġwith 6.227136
Ġpower 3.0357656
Ġover 2.1922863
Ġthem 2.3233294
, 0.172741
Ġthe 2.3139074
ĠGreeks 3.0918083
Ġcould 3.2816024
Ġhope 3.451715
Ġto 0.8855379
Ġkeep 5.6742163
Ġthe 2.2321587
Ġgods 2.4545712
Ġbenevolent 8.067425
Ġrather 5.4925795
Ġthan 0.011234291
Ġv 6.2741942
enge 0.0044042454
ful 0.010470196
. 0.4049024
ĠWe 4.9261117
Ġmust 3.7900934
Ġremember 1.898459
Ġthat 0.44228324
Ġin 3.4934769
Ġcontrast 6.4191356
Ġto 0.09018767
Ġour 3.1347823
Ġmodern 1.7714288
Ġview 3.5863168
Ġof 0.53592736
Ġdeities 4.5355854
Ġas 1.6286416
Ġdistant 5.0090213
Ġforces 3.3764768
, 0.8542778
Ġto 5.6280355
Ġthe 0.49753562
ĠGreeks 0.2630405
, 1.9298273
Ġthe 1.8329597
Ġgods 0.1841404
Ġhad 3.9507546
Ġa 1.1908307
Ġdirect 2.2253578
Ġinfluence 1.9459532
Ġover 1.5327849
Ġeveryday 4.3053427
Ġlife 0.4937084
. 0.5173967
ĠHer 8.705758
acles 1.29456
), 11.997546
Ġor 4.5596156
Ġdestroy 10.409069
Ġthose 4.915808
Ġwho 0.5697868
Ġincurred 10.784752
Ġtheir 2.5558167
Ġwrath 0.08598345
Ġ( 3.4640317
e 3.6773899
. 0.037067294
g 0.0099655185
. 0.107634835
ĠEur 7.6389217
ip 0.16879816
ides 0.050440595
' 1.5219715
ĠHipp 3.633318
oly 0.117003635
t 0.20502846
us 0.014653199
). 0.96992207
ĠConsidering 8.882749
Ġthis 2.3963342
, 0.6666106
Ġthe 1.7878724
Ġconcept 5.7008834
Ġof 0.13171396
Ġsupp 10.530797
lic 0.78309906
ating 0.50638705
Ġoneself 5.8154483
Ġand 4.468442
Ġoffering 3.888256
Ġitems 10.2592325
Ġto 1.0694864
Ġthe 0.44136775
Ġgods 0.08347763
Ġseems 2.0326438
Ġlogical 3.9355009
. 0.7228808
Ġ' 4.4698763
First 8.115115
ĠFruit 12.375036
' 0.28808436
Ġofferings 8.100676
Ġinvolved 7.2176604
Ġthe 2.0335028
Ġconcept 6.8642855
Ġof 0.1445226
Ġ' 1.6456139
ap 9.074627
- 8.016205
arch 11.368209
ai 1.9633399
', 1.2270542
Ġbeginnings 10.805265
Ġtaken 9.684201
Ġfrom 0.51954216
Ġthe 0.6312994
Ġwhole 8.388769
, 2.8976376
Ġfor 5.199542
Ġthe 1.5401963
Ġgod 3.605329
Ġcomes 8.4604225
Ġfirst 0.8730196
'. 6.118426
ĠThe 2.0412416
Ġfood 6.475567
stuff 5.040334
Ġwas 1.2184887
Ġoften 4.3513317
Ġdestroyed 8.195169
Ġ( 3.9204135
i 4.16849
. 0.014599371
e 0.0049606375
. 0.052921962
Ġsacrificed 2.8889675
) 0.6821753
Ġby 3.472417
Ġway 4.960773
Ġof 0.0062945727
Ġtransmission 11.6144285
Ġto 1.7639741
Ġthe 0.40547416
Ġdeity 3.7781842
. 0.81458175
ĠAccording 5.461652
Ġto 0.008395793
ĠPlato 4.432707
, 0.36397406
Ġ' 2.2022333
S 6.289376
ocrates 1.03484
Ġdefine 13.125134
( 3.6400223
d 1.079554
) 0.085352845
Ġpiety 8.442149
Ġas 1.1791998
Ġ' 2.8463347
knowledge 7.181051
Ġof 0.52882063
Ġsacrificing 11.649912
Ġand 3.497078
Ġpraying 6.820853
' 2.1303885
Ġand 2.694874
Ġsacrificing 8.955534
Ġas 3.180433
Ġ' 0.96185696
making 4.738475
Ġgifts 6.1642075
Ġto 0.74829555
Ġthe 0.2967333
Ġgods 0.19394031
''. 4.065243
ĠAlthough 5.551843
Ġmany 5.0614076
Ġsacrifices 5.7598743
Ġinvolved 3.2777996
Ġthe 1.882886
Ġdeath 4.233084
Ġof 0.055699307
Ġa 1.8791361
Ġvictim 2.4799058
, 0.26187485
Ġ( 7.3609943
see 4.2657595
Ġbelow 3.1624873
) 1.0578679
Ġthere 2.859785
Ġwere 1.6186603
Ġother 2.483975
Ġways 2.3141167
Ġthe 3.8424501
ĠGreeks 3.124493
Ġmade 3.0493424
Ġsacr 5.1850505
ificial 0.015141425
Ġgifts 4.9897366
Ġto 1.156818
Ġthe 0.306966
Ġgods 0.10993777
. 0.51284146
Ġ' 2.9968941
A 3.5655177
Ġmore 6.7357984
Ġlasting 6.757366
Ġtestimony 6.4573917
Ġthan 4.3826733
Ġa 2.5815022
Ġsacrifice 1.4499581
' 2.4131773
Ġwhen 7.566484
Ġappealing 9.36357
Ġto 0.111033864
Ġor 5.7457914
Ġthanking 5.1511426
Ġthe 0.23860623
Ġgods 0.20392582
Ġwas 2.2825933
Ġthe 1.6105903
Ġdedication 6.353275
Ġof 0.1836037
Ġa 1.1760193
Ġvot 5.78486
ive 0.023456318
Ġoffering 1.2209334
, 2.0730546
Ġsuch 4.1408925
Ġas 0.06593634
Ġa 0.8242505
Ġstatue 1.7780213
. 2.6428967
ĠThe 1.8698307
Ġmost 4.6067405
Ġdramatic 5.212529
Ġsacrifices 4.446541
Ġwere 1.0323312
Ġthose 1.4087145
Ġthat 2.6090267
Ġinvolved 0.8205428
Ġthe 1.0136365
Ġritual 5.2460423
Ġkilling 2.8344033
Ġof 0.10935341
Ġa 1.2253418
Ġvictim 2.2302155
. 0.9226152
ĠThe 1.9167856
Ġtype 7.187303
Ġof 0.12757783
Ġvictim 2.2917159
Ġwas 1.775225
Ġspecific 6.3926296
Ġto 0.5195014
Ġthe 0.5009284
Ġdeity 3.3027437
Ġconcerned 4.240059
, 1.0845366
Ġwith 3.0602543
Ġmajor 7.3250847
ĠOlymp 7.1159835
ians 1.9719813
Ġreceiving 6.3994675
Ġthe 1.5289135
Ġ' 3.8152206
most 2.5540593
Ġnoble 5.087438
Ġsacr 5.9415507
ificial 0.04578239
Ġanimal 4.308637
', 1.9008405
ĠThe 3.882848
Ġbull 5.692104
's 4.898612
Ġreligious 10.845997
Ġsignificance 0.8361049
Ġcan 2.9377246
Ġbe 0.21419983
Ġtraced 0.71662927
Ġback 0.38608506
Ġto 0.15826064
Ġits 4.762032
Ġappearances 7.925668
Ġin 0.2783269
ĠMin 7.121693
oan 0.16575903
Ġand 1.8336737
ĠMy 0.47826362
c 0.00045108353
en 0.09151623
ae 0.06295334
an 0.004445559
Ġart 3.0281157
. 0.66146517
ĠAt 5.2199254
ĠKn 5.990059
oss 0.035620794
os 0.002027792
Ġwall 13.421923
Ġfres 8.027759
co 0.18254547
es 0.2455544
Ġdepicted 6.933118
Ġbull 4.3669753
Ġleaping 7.0481277
, 2.4279346
Ġand 2.2390566
Ġthe 1.7952229
Ġ' 3.767516
h 4.818547
orns 2.2993312
Ġof 1.6217068
Ġconsec 7.5826364
ration 0.2728326
' 0.23482229
Ġicon 9.556348
ography 1.5011424
Ġis 2.626737
Ġcommon 4.0245476
Ġin 1.5963751
ĠC 8.086565
ret 0.95490575
an 0.09373058
Ġarchitecture 6.7298994
. 0.4361955
ĠThe 1.5195893
Ġbull 2.8073542
Ġwas 1.4193915
Ġof 5.968131
Ġsome 7.2307587
Ġunknown 8.738483
Ġsignificance 3.6721616
Ġto 1.2858577
Ġthese 5.4559684
ĠGreeks 3.7115202
, 0.7818684
Ġa 4.7044106
Ġsignificance 9.798785
Ġthat 0.9475497
Ġendured 6.852136
Ġin 2.7759058
Ġa 3.8433487
Ġdifferent 3.5705192
Ġform 0.6681711
Ġto 2.7974162
Ġthe 0.9193151
ĠClassical 7.645044
Ġperiod 2.568198
. 0.5983204
ĠDes 9.516828
criptions 1.2036262
Ġof 0.39958638
Ġsacrifice 4.576512
Ġindicate 4.8781176
Ġa 3.0338972
Ġgreat 4.2884135
Ġwish 8.88481
Ġto 0.6635268
Ġplease 2.9566832
Ġthe 0.23114578
Ġgods 0.2326038
. 1.6681511
ĠThe 1.6884271
Ġanimal 5.5992627
Ġreceived 7.6880455
Ġby 5.251065
Ġthe 0.73215014
Ġdeity 4.2322273
Ġmust 4.7929387
Ġbe 0.94456214
Ġa 2.8260636
Ġ' 2.2231505
perfect 4.444523
' 3.45977
ĠDoc 20.005138
ile 4.196555
Ġanimals 7.92412
Ġwere 1.2454913
Ġpreferred 3.6352284
, 1.2288543
Ġas 2.215642
Ġa 3.6171265
Ġstruggling 11.24618
Ġvictim 4.585976
Ġwas 1.6243335
Ġa 2.3482118
Ġbad 5.1678567
Ġo 0.7752655
men 7.553489e-05
. 0.78431576
ĠMuch 7.5121927
Ġceremony 7.7225924
Ġwas 0.85788447
Ġinvolved 1.397778
Ġin 0.49036065
Ġsacrifices 5.335095
, 0.8913408
Ġpresumably 7.9920073
Ġto 1.4952275
Ġshow 4.424668
Ġthe 1.9587946
Ġproper 6.069571
Ġdegree 5.1554103
Ġof 0.026236892
Ġrespect 1.2731239
Ġto 1.580859
Ġthe 0.16504121
Ġgods 1.0363889
. 0.40273085
ĠVictims 9.638879
Ġwere 0.5281224
Ġgar 7.892195
land 0.8060189
ed 0.006968085
, 1.2391076
Ġeven 7.2102027
Ġg 6.5034914
ilded 0.36853492
Ġwith 3.9236188
Ġgold 0.8734269
, 0.9646234
Ġand 1.4211344
Ġled 7.2467337
Ġto 1.071363
Ġthe 0.87721616
Ġtemple 4.0199833
's 4.9407277
Ġaltar 1.2817587
Ġin 3.7101595
Ġa 0.8997171
Ġprocession 1.260658
, 2.1002545
Ġaccompanied 3.9005797
Ġby 0.028901363
Ġmusic 4.113955
, 1.4438885
Ġas 5.840692
Ġdepicted 7.00493
Ġon 2.1059723
Ġthe 0.95217806
ĠPart 5.104332
hen 0.0013738306
on 0.01215746
Ġf 4.1339564
rie 0.004257165
ze 0.12697451
Ġof 4.08139
Ġthe 1.0798776
ĠPan 6.4581795
at 0.43573487
hen 0.0018322129
aic 1.3190367
Ġfestival 2.2999318
. 0.41359562
ĠTheir 6.6986732
Ġthroats 4.8214884
Ġwere 0.17383124
Ġslit 1.0698986
Ġat 5.4900603
Ġthe 0.4431992
Ġaltar 1.022963
, 0.6208946
Ġthe 3.0316117
Ġblood 2.0197747
Ġsprayed 5.4312406
Ġover 1.6166815
Ġthe 0.21959244
Ġaltar 2.0502748
, 1.1366807
Ġthe 2.0049577
Ġbody 3.04025
Ġthen 4.725908
Ġdis 5.4036517
mem 0.9030636
bered 0.0014194321
. 1.9384713
ĠInternal 11.449626
Ġorgans 0.52350116
Ġand 2.6651852
Ġthigh 9.101373
Ġbones 0.4844555
Ġwrapped 10.1263
Ġin 0.1597653
Ġfat 7.618745
Ġ( 4.538087
as 3.6866343
Ġin 1.7179496
ĠHomer 5.549224
ic 2.7620006
Ġtexts 6.5926104
) 0.24602623
Ġwere 0.1912745
Ġplaced 3.0606143
Ġon 1.072183
Ġa 1.9585414
Ġfire 3.628234
Ġto 2.3787634
Ġbe 2.9928439
Ġburnt 1.8236259
Ġfor 4.228081
Ġthe 1.3221723
Ġgod 2.9275773
, 2.291732
Ġother 7.604463
Ġedible 9.184317
Ġparts 0.9759608
Ġeaten 4.4625397
Ġat 4.0911536
Ġthe 0.43342397
Ġcustomary 10.027822
Ġfeast 1.8286679
, 1.9347275
Ġas 3.8280683
Ġsignificant 11.121856
Ġa 6.1735954
Ġpart 1.8787558
Ġof 0.13944377
Ġthe 0.20228116
Ġritual 2.0398414
Ġas 1.6437217
Ġthe 0.53789526
Ġactual 4.883026
Ġkilling 3.1451602
. 0.71567523
ĠHowever 6.322729
, 0.20463124
Ġthere 2.869078
Ġis 1.1997947
Ġsome 3.0027022
Ġsuggestion 3.6157837
Ġthat 0.1822155
Ġby 6.215589
Ġthe 0.48966846
Ġ5 2.263652
ĠIn 15.587335
ĠMen 9.424786
ander 0.503136
's 0.7337167
Ġcomedy 6.2173724
, 0.6770472
Ġ' 2.3707483
D 5.4419146
ys 6.234219
k 1.6531558
ol 2.755682
os 0.7573864
', 2.380039
Ġa 2.272474
Ġcharacter 5.670034
Ġattacks 7.9894643
Ġthe 1.1853551
Ġ' 3.959064
sc 5.4553146
ound 4.388425
rel 0.02407621
s 2.1196918
' 0.30065674
Ġwho 0.75189805
Ġplace 7.2182136
Ġon 5.6855345
Ġthe 1.2935838
Ġfire 4.7014976
Ġ' 3.9159102
the 1.3291916
Ġtail 7.23832
Ġbone 5.4642105
Ġand 2.6548214
Ġb 7.728723
ile 1.780529
, 2.9615054
Ġbecause 6.977259
Ġthey 1.2706802
Ġare 1.8923182
Ġin 4.167399
ed 9.617515
ible 0.0064606126
... 5.528477
then 6.6304793
Ġg 7.6599655
ulp 5.6595125
Ġdown 0.75213885
Ġall 3.6821878
Ġthe 0.7240147
Ġrest 2.8209088
'. 1.3184646
ĠHowever 5.563924
, 0.14662367
Ġwe 4.058557
Ġmust 2.291433
Ġbear 2.783603
Ġin 0.045417685
Ġmind 0.0013008956
Ġthat 0.14334746
Ġthe 1.4148949
Ġabove 6.993801
Ġevidence 6.5855527
Ġis 1.0395322
Ġfrom 1.8192408
Ġa 1.5530558
Ġcomic 6.2087755
Ġplay 1.8919652
, 0.7978337
Ġand 1.1942791
Ġmay 3.921015
Ġnot 1.5570512
Ġbe 0.9604956
Ġintended 5.870249
Ġto 0.58554786
Ġbe 0.7370978
Ġtaken 0.59620696
Ġliterally 0.76054406
. 0.30553702
ĠIn 3.2830908
Ġsome 4.1459484
Ġinstances 3.5263033
Ġthe 1.6061784
Ġanimal 3.8114572
Ġwas 1.4971273
Ġnot 3.2114592
Ġin 5.8264856
Ġfact 2.0361063
Ġeaten 2.9764647
, 0.5942338
Ġbut 0.5981546
Ġentirely 10.122922
Ġburnt 2.270976
, 1.4523287
Ġa 3.693397
Ġ' 3.3935392
hol 7.7529387
ocaust 0.10697572
' 0.5008382
Ġin 3.0081353
Ġwhich 1.7683178
Ġthe 0.4940303
