The 2.5869806
Ġhealth 8.33486
Ġsecretary 4.8742037
, 1.5885037
ĠAlan 4.9010935
ĠMil 1.798246
burn 0.11066328
Ġhas 5.6342435
Ġvowed 5.6064596
Ġto 0.22372922
Ġdismantle 8.721934
Ġthe 0.511628
Ġ'' 9.39075
p 4.521352
aternal 4.731704
istic 0.47081664
'' 0.19462843
Ġculture 3.4872313
Ġof 0.7690727
Ġthe 0.7735583
ĠNHS 0.4378697
Ġwith 5.10609
Ġdecision 9.669555
- 1.1339585
making 0.27918425
Ġbeing 4.5664434
Ġdecentral 4.385855
ised 0.0009598689
Ġfrom 3.409879
ĠWhite 2.5954895
hall 0.0016089634
Ġto 1.0250086
Ġthe 1.7256519
Ġlocal 2.4247808
Ġcommunity 3.2031467
. 0.45250422
ĠThe 4.1962748
Ġhealth 2.6259367
Ġinequalities 9.854618
Ġthat 3.8505194
Ġexist 3.2380438
Ġin 0.8462398
ĠGod 13.906173
iv 10.654645
av 7.7530246
ille 3.4453263
Ġare 1.9618546
Ġtypical 7.8758264
Ġof 0.15660033
Ġa 3.2088213
Ġtown 6.590746
Ġthat 2.1417894
Ġis 1.6779568
Ġsocially 6.402301
Ġand 2.061696
Ġeconomically 0.31497306
Ġdisadvantaged 2.9844413
Ġwith 4.3860345
Ġhigh 4.446103
Ġmorbid 6.7634087
ity 0.045777712
Ġand 0.7402543
Ġmortality 0.27673125
Ġrates 0.36342585
. 0.7866314
ĠTo 5.742184
Ġtackle 2.6888034
Ġhealth 5.229551
Ġinequalities 0.083231315
Ġit 4.3565884
Ġis 0.18716295
Ġnecessary 1.6771855
Ġto 0.14578761
Ġaccurately 10.235378
Ġassess 2.1979253
Ġthe 0.8367536
Ġvariations 8.980617
Ġin 0.3848138
Ġhealth 0.7371973
Ġin 2.710501
ĠGod 3.3596282
iv 0.047139186
av 0.0012324408
ille 0.20337437
Ġand 1.1492386
Ġto 1.7052741
Ġlook 4.7424107
Ġat 0.4721954
Ġthe 0.8086083
Ġdistribution 6.419855
Ġof 0.08255506
Ġsocial 5.0706654
Ġclass 3.8675933
Ġand 1.4814236
Ġethnic 4.8885818
Ġminority 4.2180943
Ġthroughout 12.1327915
Ġthe 0.14264446
Ġarea 2.6225693
. 0.19577557
ĠThis 2.2558014
Ġwill 2.5906498
Ġgive 4.606663
Ġan 2.5530093
Ġindication 2.4831686
Ġof 0.075604744
Ġwhere 3.359271
Ġresources 5.7481275
Ġshould 2.4093046
Ġbe 0.082658
Ġallocated 1.132974
Ġin 2.314634
Ġorder 0.61428875
Ġto 0.03546157
Ġhave 5.4556313
Ġa 0.67563915
Ġmaximal 10.107613
Ġimpact 1.2259208
. 2.4028668
ĠThe 2.20889
Ġhealth 3.5216346
Ġinequalities 0.32077962
Ġthat 1.6127421
Ġexist 0.18320179
Ġtoday 6.861357
Ġin 1.1189944
ĠGod 0.2124047
iv 0.01488391
av 0.0004662296
ille 0.063783534
Ġcan 2.8468277
Ġalso 3.4555447
Ġbe 0.05163303
Ġfound 3.2573915
Ġin 0.27585086
Ġother 0.96724916
Ġdeveloped 7.9623246
Ġcountries 0.98602504
, 2.6485991
Ġfor 2.4382021
Ġexample 0.067080155
Ġin 0.5581685
Ġthe 1.19576
ĠUSA 1.973637
ĠFirstly 18.137674
Ġwe 2.751705
Ġhave 2.6421561
Ġdrawn 9.327422
Ġon 3.019024
Ġnational 5.8371005
Ġresearch 3.287286
Ġevidence 3.5661495
Ġto 1.2342572
Ġhelp 5.1128345
Ġus 0.97470295
Ġevaluate 5.8129916
Ġwhy 6.820217
Ġhealth 2.4733124
Ġinequalities 0.27506655
Ġexist 0.36883062
Ġand 2.0879579
Ġsecondly 3.4541605
Ġwhat 6.3043065
Ġcan 1.6517395
Ġbe 0.051753104
Ġdone 0.058291167
Ġto 0.5561116
Ġlower 7.2569413
Ġthem 1.6501272
. 0.38828492
ĠIn 3.0201108
Ġ1977 8.983647
Ġthe 1.2380133
Ġgovernment 3.6044564
Ġset 3.2114248
Ġup 0.35685015
Ġa 1.0722508
Ġworking 4.3442984
Ġparty 1.2888693
Ġon 1.5633775
Ġinequalities 3.0190365
Ġin 1.0805078
Ġhealth 1.6548373
Ġchaired 9.067822
Ġby 0.0021833938
ĠSir 2.3487258
ĠDonald 5.047755
ĠBlack 5.47963
, 1.8757095
Ġthus 10.488334
Ġthe 3.3224044
Ġreport 4.6142216
Ġbecame 5.70606
Ġknown 0.98542297
Ġas 0.02183167
Ġthe 0.5258351
ĠBlack 0.74948686
Ġreport 2.2808077
Ġand 3.209396
Ġwas 1.3466964
Ġpublished 1.517115
Ġin 0.24417137
Ġ1980 1.8719985
. 0.16715972
ĠDep 9.902037
ri 3.1826317
vation 0.088000365
Ġand 2.384385
Ġpoverty 3.1478765
Ġin 2.32012
Ġthe 1.8036934
Ġlowest 10.252621
Ġclasses 6.030299
, 3.3856084
ĠIV 11.96419
Ġand 3.1205661
ĠV 0.6525743
Ġwere 3.8872254
Ġshown 5.234516
Ġto 0.027294
Ġbe 0.3545021
Ġcorrelated 4.775152
Ġwith 0.23384854
Ġpremature 7.5334964
Ġdeath 1.0042224
Ġand 1.269931
Ġlower 5.0168123
Ġlife 0.98167884
Ġexpectancy 0.02708074
. 0.5991697
ĠThe 1.4868435
Ġreport 2.5518768
Ġput 7.283447
Ġforward 0.10772604
Ġfour 3.7798371
Ġtypes 6.4723206
Ġof 0.0071008024
Ġexplanation 8.512584
Ġof 3.3374674
Ġsocial 5.2280817
Ġclass 2.1700315
Ġdifferences 2.3728025
Ġin 0.40895846
Ġhealth 0.3803596
: 1.1789579
Ġarte 11.002984
fact 0.24480623
, 1.7509437
Ġsocial 4.0155497
Ġselection 5.6246915
, 0.24603446
Ġbehavioural 6.1587076
/ 5.5355444
cultural 1.3799704
Ġand 2.4798758
Ġmaterial 5.9703197
ist 2.3952274
. 1.1546934
ĠIn 2.8576872
Ġterms 3.1590319
Ġof 0.0020791586
Ġexplanations 5.735059
Ġfor 2.6296284
Ġhealth 1.7225882
Ġinequalities 0.19315471
, 1.3430043
Ġthese 4.3979983
Ġcategor 7.703912
isations 1.0097128
Ġhave 3.158672
Ġbeen 0.883374
Ġdeveloped 4.520859
Ġinto 2.532828
Ġa 1.4239833
Ġset 1.3636385
Ġof 0.012486031
Ġconsiderations 8.821524
Ġregarding 6.4715457
Ġthe 0.98306406
Ġaccumulation 9.348591
Ġof 0.10821566
Ġexposures 10.400636
Ġto 2.2430668
Ġrisk 2.2620976
Ġfactors 0.65868133
Ġover 4.394693
Ġthe 1.5705459
Ġlife 0.788499
Ġcourse 0.5353285
. 0.6319969
ĠThese 2.8912528
Ġinclude 2.14419
Ġlocal 8.647116
Ġlevels 6.792034
Ġof 0.049484156
Ġeconomic 4.429496
Ġand 1.9584538
Ġsocial 0.47939572
Ġdeprivation 0.5190506
Ġas 3.5493157
Ġwell 0.16367108
Ġas 0.0072948933
Ġincome 5.415495
Ġdistribution 3.818162
Ġand 1.6942316
Ġpsych 7.7652593
os 0.035811294
ocial 0.0016877134
Ġaspects 5.7003875
Ġof 0.6785462
Ġemployment 6.302309
. 0.8699537
ĠThe 1.3672853
Ġconservative 10.22156
Ġgovernment 6.1761007
Ġresponded 5.333004
Ġby 1.391019
Ġpublishing 5.3014774
Ġtheir 5.0355573
Ġwhite 5.752915
Ġpaper 0.039695848
ĠThe 4.416271
ĠHealth 2.8888667
Ġof 1.1948372
Ġthe 1.9485307
ĠNation 1.7737406
Ġ( 2.6086657
1992 3.5368202
) 0.62547576
ĠThey 7.073657
Ġdid 4.937776
Ġnot 0.61090887
Ġimplement 6.1355686
Ġthe 0.757387
Ġchanges 6.294719
Ġwith 8.125223
Ġcost 8.029773
Ġbeing 5.388225
Ġthe 1.6664425
Ġmain 1.0758891
Ġreason 2.3888483
Ġstated 6.8013406
. 1.7150028
ĠIn 2.307086
Ġ1997 2.79173
, 1.755243
Ġthe 0.80929023
ĠNew 5.8255997
ĠLabour 1.4496833
Ġgovernment 0.5230787
Ġset 3.2461078
Ġup 0.48723578
Ġan 2.5854588
ĠIndependent 4.689542
Ġinquiry 7.1036754
Ġinto 0.6479365
Ġinequalities 1.602932
Ġin 0.18417436
ĠHealth 4.334681
Ġchaired 8.701367
Ġby 0.0033085428
ĠSir 1.4219811
ĠDonald 5.065395
ĠA 6.4824157
ches 6.091353
on 0.0024932271
. 0.93686885
ĠOn 5.572901
Ġa 4.496762
Ġsocietal 7.7524567
Ġbasis 1.5379931
, 0.9745244
Ġthe 1.2520443
ĠA 6.3348136
ches 0.064016975
on 0.046301976
Ġreport 0.8186957
Ġsuggested 3.5414338
Ġthat 0.40072435
Ġsocieties 8.386386
Ġin 3.1887784
Ġwhich 1.943847
Ġa 4.2052217
Ġwide 5.43989
Ġgap 5.4156766
Ġexists 0.93711746
Ġbetween 0.23972324
Ġrich 2.1741128
Ġand 0.018364808
Ġpoor 0.009518681
Ġare 2.9198985
Ġmore 1.9972861
Ġprone 3.1967409
Ġto 0.008237361
Ġsocial 2.867739
Ġproblems 2.7694817
Ġsuch 1.486686
Ġas 0.030105319
Ġhigh 4.034143
Ġrates 1.82063
Ġof 0.0048519247
Ġviolence 4.589144
Ġand 0.9465852
Ġother 5.7260094
Ġcrime 3.3251593
. 0.6768116
ĠSoc 7.5451736
ietal 1.030854
Ġfactors 2.0224903
Ġinfluence 5.6503806
Ġthe 1.2964997
Ġindividual 4.5740004
's 1.635686
Ġhealth 2.2375016
Ġin 1.8165156
Ġa 1.791296
Ġseries 7.607923
Ġof 0.004226336
Ġcomplex 4.656197
Ġways 0.6013901
Ġwhich 3.7899315
Ġfall 7.87113
Ġwithin 3.1687093
Ġthe 0.45011938
Ġfield 4.245397
Ġof 0.013451795
ĠPsych 11.46732
one 5.8080335
uro 0.022989513
im 0.2009272
mun 0.01983761
ology 0.04944489
, 2.5412958
Ġwhich 2.5406022
Ġprovides 5.741626
Ġevidence 3.6980913
Ġthat 2.097369
Ġstress 4.4983993
Ġis 2.4134865
Ġstrongly 4.944232
Ġlinked 2.11594
Ġto 0.14467716
Ġsocial 5.0055323
Ġrelations 5.7318997
, 1.9195567
Ġemployment 7.1225266
Ġrelations 4.6969833
, 0.8538486
Ġand 1.832686
Ġconditions 7.8246765
Ġof 0.24848075
Ġwork 4.250196
. 0.5566046
ĠRichard 7.8706465
ĠWilkinson 2.624034
Ġin 3.8660808
Ġhis 0.42371196
ĠUn 9.404686
healthy 4.605142
ĠSoc 1.247271
ieties 0.0005382664
ĠStress 11.778966
Ġis 2.1180758
Ġincreasingly 6.4708543
Ġreported 6.517282
Ġto 0.46197015
Ġbe 0.4765789
Ġassociated 3.3475688
Ġwith 0.014362615
Ġimmun 9.229296
os 3.510611
upp 0.60406846
ression 0.2477621
ĠA 8.603569
ches 0.6898713
on 0.0053178365
Ġnotes 7.7221165
Ġthat 0.2888263
Ġpeople 4.883226
Ġwith 2.0000331
Ġgood 7.0445347
Ġsocial 2.1832566
Ġnetworks 2.2584672
Ġlive 4.7135816
Ġlonger 0.56501216
Ġand 1.2473426
Ġare 1.9260042
Ġat 4.2323723
Ġlower 1.610511
Ġrisk 0.05009429
Ġof 0.1135237
Ġdiseases 4.6470985
Ġsuch 1.0581785
Ġas 0.015447791
Ġcoronary 3.464526
Ġheart 0.10235623
Ġdisease 0.011553577
. 1.5631977
ĠThe 2.0532339
Ġmost 5.3743644
Ġeffective 3.04493
Ġway 1.7359452
Ġof 1.4081479
Ġtackling 3.9503489
Ġhealth 1.4549711
Ġinequalities 0.08891226
Ġin 2.017581
ĠBritain 3.778198
Ġas 6.022368
Ġa 1.3001901
Ġwhole 0.29368362
Ġand 4.365744
Ġlocally 5.0779715
Ġin 3.001554
ĠGod 0.18760613
iv 0.015538533
av 0.0011109428
ille 0.017923368
Ġis 0.33605602
Ġto 0.5001527
Ġreduce 3.4176507
Ġpoverty 3.3977807
Ġand 0.848652
Ġincome 4.9850044
Ġinequalities 2.5666983
Ġthat 5.450211
Ġsubsequently 10.607429
Ġlead 1.025284
Ġto 0.018976282
Ġhealth 2.7992353
Ġinequalities 0.091418065
. 0.34918985
ĠThe 1.6302025
ĠBlack 5.724367
Ġreport 0.31914428
Ġsuggested 3.3073516
Ġan 4.9895535
Ġincrease 3.996718
Ġin 0.041310415
Ġsocial 2.5312343
Ġsecurity 4.982667
Ġand 2.2974539
Ġa 2.1549828
Ġfaire 6.598002
r 0.00077356264
Ġdistribution 0.8437016
Ġof 0.029222589
Ġbenefits 2.863439
. 1.5337789
ĠThe 1.5671737
Ġmain 6.0496535
Ġaim 3.4422214
Ġwas 3.495637
Ġthe 5.3035593
Ġabol 5.793415
ishment 0.17218573
Ġof 0.0142562
Ġchild 5.2993064
Ġpoverty 0.49083248
. 1.7275239
ĠA 3.6666517
ches 1.828166
on 0.0016786976
Ġreiterated 8.377801
Ġthe 1.2185425
Ġneed 1.9382094
Ġto 0.5893418
Ġreduce 1.965731
Ġincome 3.081353
Ġinequalities 1.3021804
Ġand 1.3005426
Ġreduce 4.4964466
Ġpoverty 2.4349194
. 1.3044969
ĠIncreased 6.9730086
Ġaccessibility 7.6640916
Ġto 0.588777
Ġhealthcare 2.6842678
Ġwas 2.3630118
Ġalso 2.177048
Ġrecommended 1.7631131
Ġwith 4.13748
Ġpriority 5.9512296
Ġgiven 0.96538365
Ġto 0.020250704
Ġparents 8.511076
Ġand 1.1135981
Ġchildren 2.0135908
. 0.5457203
ĠIt 3.8100176
Ġis 1.3666842
Ġimportant 1.9334543
Ġto 0.18378383
Ġhave 4.1570244
Ġa 0.9901367
Ġholistic 3.9062483
Ġapproach 0.79922277
Ġto 0.43659356
Ġhealth 1.7677236
Ġinequalities 2.563631
Ġbecause 3.3131418
Ġthey 1.9337798
Ġare 1.3011938
Ġinter 2.982166
- 3.785895
linked 2.0121453
Ġwith 1.5617353
Ġother 1.4646294
Ġpriv 14.516709
ations 0.9658104
. 1.8297677
ĠVarious 8.185329
Ġorganisations 4.9083786
Ġwithin 5.250419
Ġand 3.786583
Ġbeyond 2.6592722
Ġthe 0.25706697
ĠNHS 0.79719526
Ġmust 6.4024925
Ġwork 1.9432672
Ġin 3.5406954
Ġtandem 3.055587
. 4.049002
ĠHealth 4.5988774
Ġaction 8.005229
Ġzones 8.90445
Ġ( 3.488548
HA 1.4596674
Z 0.012390195
's 5.390824
) 0.12271027
Ġseek 9.479122
Ġto 0.1256307
Ġachieve 4.3890758
Ġthis 2.8557885
Ġgoal 3.4920218
. 1.3359138
ĠThe 1.5478892
Ġprimary 6.300904
Ġaim 1.662667
Ġis 0.7413043
Ġto 0.1830755
Ġspecifically 9.787551
Ġimprove 4.8077526
Ġthe 1.0063778
Ġhealth 0.8719507
Ġof 0.27064186
Ġthe 1.1924491
Ġleast 4.3582063
Ġwell 1.5710357
Ġoff 1.1517277
. 1.6290779
ĠPatient 8.516254
- 2.4647832
driven 4.993793
Ġpolicies 4.4928007
Ġare 1.5178517
Ġpursued 7.008735
Ġwhich 4.1099806
Ġimpart 10.890199
Ġa 1.802997
Ġsense 2.0589108
Ġof 0.013183663
Ġempowerment 2.5959234
Ġand 1.4434475
Ġdecrease 7.89253
Ġap 7.5337634
athy 0.02767838
Ġand 2.3272817
Ġdepression 4.6186795
. 0.44007924
ĠThey 3.344658
Ġhave 3.1137283
Ġan 3.8518462
Ġarea 7.728222
- 3.3475733
based 0.50164646
Ġapproach 0.77783054
Ġand 2.103212
Ġhelp 5.663277
Ġto 1.2714386
Ġbuild 3.4780898
Ġsocial 3.3264775
Ġnetworks 2.3949487
Ġwithin 3.0865932
Ġpopulations 7.2625976
Ġas 4.657733
Ġrecommended 9.525633
Ġby 0.18530512
ĠA 2.0597486
ches 0.019954052
on 0.0017165507
. 0.29623157
ĠHowever 5.0454745
, 0.21534608
ĠHA 4.988695
Z 0.00046575186
's 0.17540403
Ġhave 2.3646824
Ġbeen 1.9461288
Ġaccused 4.935288
Ġof 0.09511238
Ġmy 11.831946
opia 1.0118188
Ġbecause 2.9173918
Ġthey 0.4978786
Ġonly 3.4180005
Ġreach 6.8887563
Ġa 1.8501993
Ġminority 3.407193
Ġand 3.6222804
Ġare 1.976881
Ġtherefore 3.9859552
Ġlimited 2.8945317
. 1.8008076
ĠHA 5.033228
Z 0.0014813296
's 0.07839658
Ġare 1.3849437
Ġstill 6.0305424
Ġvery 3.7002394
Ġmuch 1.1600574
Ġa 1.4902817
Ġwork 0.91709113
Ġin 0.03285664
Ġprogress 0.01929859
Ġand 1.4672654
Ġrepresent 7.182944
Ġa 0.83332825
Ġlong 4.2813334
- 1.0744038
term 0.07417915
Ġfinancial 8.969168
Ġcommitment 0.8403357
Ġby 3.5011709
Ġrunning 11.716769
Ġfor 5.047786
Ġup 4.0766053
Ġto 0.014564836
Ġ7 5.287486
Ġyears 0.24649012
. 0.35051617
ĠI 6.46249
Ġbelieve 2.4813797
Ġthat 0.44507015
ĠHA 2.2371683
Z 0.00048036288
's 0.051331118
Ġin 4.4913263
Ġconjunction 7.0337224
Ġwith 0.009940832
Ġother 2.2761552
Ġnational 5.285739
Ġpolicies 3.515547
, 2.7538738
Ġe 5.555825
. 0.008571319
g 0.011698424
. 0.050687935
Ġthe 1.3632308
Ġintroduction 4.53603
Ġof 0.012954727
ĠHealth 5.204856
Ġimprovement 8.061205
Ġprogrammes 4.900991
Ġ( 1.1516367
H 0.046223443
im 11.0320835
P 2.2898426
), 1.1101862
Ġwill 1.4710877
Ġbe 1.7683918
Ġbeneficial 4.8410044
Ġbecause 4.0708957
Ġthey 0.5508117
Ġexplicitly 10.139707
Ġaddress 1.7183704
Ġthe 0.9389632
Ġlocal 4.7618775
ities 3.3535004
Ġimmediate 9.644173
Ġneeds 0.9054472
. 0.79789686
ĠThe 1.8362978
Ġgovernment 3.8283343
Ġhas 1.6771065
Ġlaunched 5.3245387
Ġ' 6.3304343
in 6.932276
Ġcash 10.997418
' 0.33620352
Ġand 3.6904986
Ġ' 0.5366539
in 0.87475926
Ġkind 2.0024598
' 0.0882655
Ġinitiatives 2.2813828
Ġto 1.238479
Ġdecrease 6.5297766
Ġpoverty 1.2258644
. 1.45036
ĠUnemployment 9.095532
Ġis 1.6174414
Ġhigher 6.1417894
Ġin 0.37444466
ĠGod 0.86255413
iv 0.0145582445
av 0.00079610996
ille 0.023872914
Ġthan 0.5505233
Ġin 0.85685647
Ġother 1.425905
Ġtowns 3.0807307
. 1.7157547
ĠWith 5.7015753
ĠWelfare 11.087371
Ġto 3.2197638
Ġwork 1.8418247
Ġ- 5.859251
ĠThe 4.4659543
ĠNew 4.4566813
ĠDeal 0.45002913
, 2.0046222
Ġa 2.9853642
Ġrange 5.8441544
Ġof 0.0065606833
Ġprogrammes 2.7778685
Ġis 4.422777
Ġin 3.8357208
Ġoperation 3.2500815
Ġto 1.3227962
Ġencourage 3.5391014
Ġunemployed 3.076196
Ġpeople 0.4197324
Ġto 0.16876853
Ġmove 4.671871
Ġinto 1.1499709
Ġwork 1.1459916
. 0.5563245
ĠSpecial 8.755529
Ġfocus 5.4325366
Ġhas 1.6746706
Ġbeen 0.105101936
Ġput 1.9366472
Ġon 0.087079994
Ġthe 1.8011547
Ġneeds 4.831794
Ġof 0.034387402
Ġlone 8.392086
Ġparents 0.3364821
Ġwho 2.5568829
Ġare 1.1802758
Ġover 5.994405
- 0.701139
represented 0.7346146
Ġin 0.24094416
ĠGod 1.8647858
iv 0.016314033
av 0.00050791225
ille 0.06455126
Ġcompared 5.26052
Ġto 0.2558237
Ġnational 6.8869953
Ġaverages 1.9825336
. 0.14145732
ĠEmployment 5.865204
Ġzones 10.921777
Ġaim 4.457597
Ġto 0.041471377
Ġhelp 3.0721402
Ġthe 3.066432
Ġlong 6.714548
Ġterm 0.9338403
Ġunemployed 0.008208516
Ġto 1.7555896
Ġimprove 4.4405975
Ġtheir 0.16487102
Ġemploy 2.13644
ability 0.02324717
. 1.5291356
ĠFor 5.1921115
Ġthose 3.408552
Ġunable 3.9133327
Ġto 0.024690934
Ġwork 1.4548079
Ġ' 6.59536
in 3.3794386
Ġkind 0.926239
' 0.22602867
Ġservices 4.353687
Ġincrease 8.1812525
Ġthe 1.6346723
Ġstandard 5.719213
Ġof 0.037398838
Ġliving 0.22374019
. 2.1794848
ĠThe 1.7465471
ĠNew 3.3570254
ĠDeal 0.056083225
Ġfor 4.978967
Ġcommunities 9.093047
Ġ( 5.031792
ND 2.1872706
C 1.0220946
) 0.107241176
Ġpath 14.886046
find 3.4018192
ers 0.004463342
Ġtackle 8.68749
Ġsocial 3.5555358
Ġexclusion 1.2402114
Ġin 3.1852748
Ġthe 1.7595901
Ġcontext 4.5990605
Ġof 0.0048826523
Ġthe 2.0424042
ĠSocial 7.1754956
ĠEx 2.8182151
clusion 0.0016864003
ĠUnit 5.957961
's 3.6404407
Ġreport 6.512386
Ġ- 5.13019
Ġ' 2.3124425
Bring 7.210179
ing 0.07858967
ĠBritain 5.793271
ĠTogether 2.696846
; 6.1842437
Ġa 2.94959
Ġnational 4.4889565
Ġstrategy 1.3811122
Ġfor 0.42624483
Ġneighbourhood 7.9089437
Ġrenewal 5.334456
. 3.5407734
ĠSure 12.587526
Ġstart 4.0701485
Ġis 2.873119
Ġa 1.1228627
Ġcross 7.1388054
- 0.18052293
dep 2.3610713
artment 0.031453714
al 0.014348162
Ġstrategy 3.5062866
Ġspecifically 8.19384
Ġfocusing 4.3703012
Ġon 0.01956296
Ġthe 1.516291
Ġhealth 4.7792315
Ġof 1.3666066
Ġchildren 4.1206665
Ġ( 6.0413837
0 5.6596036
- 0.24068497
4 2.4733884
Ġyears 1.109498
) 0.65511876
Ġand 0.4545751
Ġtheir 3.103569
Ġfamilies 0.43785152
Ġin 3.1994429
Ġan 4.8996954
Ġattempt 1.6265469
Ġto 0.007235154
Ġimprove 2.3351142
Ġtheir 1.9901619
Ġhealth 0.93078303
Ġoutlook 7.807037
. 0.7887681
ĠThis 2.9496756
Ġupstream 14.260017
Ġpolicy 3.7798579
Ġaims 2.5008895
Ġto 0.06400122
Ġprime 10.460407
Ġchildren 2.9423382
Ġso 6.629456
Ġthat 0.5982928
Ġthey 0.17376053
Ġthrive 6.4176135
Ġwhen 4.369049
Ġthey 0.32074866
Ġget 3.7495964
Ġto 1.2206327
Ġschool 0.30484244
. 0.9146893
ĠEducation 7.2123523
ĠAction 6.039648
ĠZ 3.9541237
ones 0.0015034789
Ġ( 0.7884932
EA 3.6597588
Z 0.031940904
s 1.4017318
), 3.6103766
Ġestablished 4.8829165
Ġby 1.5563548
Ġthe 0.40981916
ĠD 6.2189584
f 0.5982
EE 4.3682837
Ġin 0.94505
Ġ1998 3.0607772
Ġare 3.4681
Ġanother 4.6509266
Ġupstream 9.133839
Ġpolicy 0.8239627
Ġaiming 3.8288827
Ġto 0.122170046
Ġhelp 3.3193953
Ġchildren 1.881338
Ġachieve 3.7278144
Ġtheir 1.4047765
Ġfull 1.2602805
Ġpotential 0.08626631
Ġin 2.2073698
Ġareas 5.518886
Ġof 1.3296465
Ġhigh 2.5655582
Ġsocial 2.609799
Ġand 2.4349878
Ġeconomic 0.28661597
Ġdeprivation 0.46057224
. 0.23347749
ĠConc 11.293995
urrent 0.028243145
Ġto 2.3457346
Ġtackling 7.5537295
Ġincome 6.292509
Ġinequalities 1.5734845
Ġit 4.1503887
Ġis 0.17342868
Ġvital 2.8786712
Ġto 0.34495744
Ġincrease 3.6340933
Ġaccess 1.1698261
Ġto 0.027793832
Ġprimary 3.506207
Ġhealthcare 3.678917
. 1.3295151
ĠProblems 9.433953
Ġaccessing 8.838988
Ġprimary 1.0495659
Ġcare 0.674609
Ġservices 4.8239956
Ġtend 6.0271134
Ġto 0.005956275
Ġbe 0.5606269
Ġamong 5.5332465
Ġparticular 9.467027
Ġgroups 1.5406778
Ġfor 6.0052385
Ġexample 1.8210201
, 2.401817
Ġthe 2.113286
Ġhomeless 2.8020422
, 0.7340284
Ġdrug 3.9120836
Ġusers 0.75183773
, 0.53752553
Ġrefugees 4.8836174
, 0.8068596
Ġethnic 4.037757
Ġminorities 0.25211564
, 0.87239873
Ġand 1.6190685
Ġin 4.961323
Ġparticular 2.696585
Ġareas 7.5859485
; 9.174826
Ġinner 5.3106475
Ġcities 2.23558
, 1.7342745
Ġsparse 8.856154
ly 0.035933685
Ġpopulated 0.14111331
Ġrural 1.0288525
Ġareas 0.14347273
, 0.5654566
Ġhousing 6.6644073
Ġestates 0.57981104
Ġin 4.6542473
Ġdeprived 1.8612955
Ġareas 0.25016278
. 1.8321574
ĠThe 1.6932502
ĠSocial 7.2140756
Ġexclusion 6.0928736
Ġunit 0.87409264
Ġaims 5.215311
Ġto 0.054619316
Ġreduce 2.99269
Ġsocial 1.6418632
Ġexclusion 0.4187715
Ġfaced 9.923062
Ġby 0.05193742
Ġpeople 2.4924476
Ġwhen 7.1193433
Ġthey 0.47671634
Ġexperience 6.251842
Ġa 2.9296088
Ġcombination 5.501786
Ġof 0.005063077
Ġlinked 9.493498
Ġproblems 3.3949213
Ġsuch 1.6115198
Ġas 0.009045519
Ġunemployment 2.3798125
, 0.26423928
Ġpoverty 2.0032187
, 0.45296755
Ġpoor 3.9991362
Ġhousing 1.2468328
Ġand 1.8633133
Ġfamily 4.1903133
Ġbreakdown 1.429354
. 0.20622328
ĠA 3.5784097
Ġdetailed 6.956988
Ġknowledge 5.968968
Ġof 1.4792662
Ġthe 0.9005975
Ġproblems 4.496786
Ġfaced 0.63430744
Ġby 0.07708254
Ġethnic 6.54749
Ġminorities 0.21956837
Ġis 1.4791356
Ġessential 2.3216255
Ġbecause 3.1568623
Ġthey 1.3355038
Ġare 0.9786178
Ġfound 5.400533
Ġin 1.9244992
Ġgreater 4.045899
Ġnumbers 0.32254422
Ġin 0.52251637
ĠGod 1.0357568
iv 0.008823846
av 0.00068945857
ille 0.022641199
Ġthan 0.8831475
Ġin 0.7557239
Ġother 0.37909767
Ġtowns 1.5567267
. 0.364339
ĠIf 5.9456253
Ġa 3.426001
Ġlarge 4.731964
Ġproportion 0.85194784
Ġof 0.037025604
Ġan 4.9601398
Ġethnic 0.4635946
Ġminority 0.15239558
Ġdelay 13.582543
Ġseeking 1.6635517
Ġhealth 2.213724
Ġcare 0.42780107
Ġdue 3.0711074
Ġto 0.005735165
Ġlanguage 6.881644
Ġbarriers 0.34828168
Ġit 3.0991375
Ġis 1.0673214
Ġthe 5.04688
Ġresponsibility 1.6526462
Ġof 0.010341006
Ġthe 0.8321423
Ġprimary 7.3405704
Ġcare 1.1729785
Ġgroup 6.479626
Ġtrust 11.500249
Ġto 0.39194375
Ġovercome 7.236578
Ġthis 0.79643464
Ġhealth 8.052866
Ġinequality 3.0623438
. 0.5423201
ĠThere 4.3647532
Ġis 0.83110106
Ġevidence 2.9322827
Ġto 1.5997958
Ġsuggest 0.30742046
Ġthat 0.07466432
Ġthe 2.1755202
Ġdisabled 6.933844
Ġand 2.409005
Ġolder 3.3384497
Ġpeople 0.42812544
Ġmay 3.6243
Ġbe 0.9884719
Ġmore 1.4945024
Ġvulnerable 2.4808743
Ġto 0.18036062
Ġthe 2.4308698
Ġeffects 1.4973973
Ġof 0.007241399
Ġpoverty 1.6791004
Ġand 1.2850473
