The 2.6440344
Ġhealth 8.150825
Ġsecretary 3.3925467
, 0.85804635
ĠAlan 2.856852
ĠMil 0.98526406
burn 0.000159348
Ġhas 6.14813
Ġvowed 5.8266225
Ġto 0.19954966
Ġdismantle 8.019454
Ġthe 0.53447694
Ġ'' 7.0915394
p 5.6311603
aternal 2.5705926
istic 0.10010072
'' 0.68762875
Ġculture 1.6595851
Ġof 0.65745544
Ġthe 0.37949434
ĠNHS 0.16988304
Ġwith 4.9171915
Ġdecision 10.021637
- 0.2823112
making 0.029281324
Ġbeing 2.6504874
Ġdecentral 5.0237284
ised 0.0006091787
Ġfrom 3.1950157
ĠWhite 0.72446275
hall 0.0006064359
Ġto 0.47282344
Ġthe 1.3103368
Ġlocal 2.0833082
Ġcommunity 3.8550732
. 0.16983253
ĠThe 4.5072403
Ġhealth 3.1719434
Ġinequalities 9.548918
Ġthat 3.1429994
Ġexist 1.8974289
Ġin 1.0975726
ĠGod 12.575933
iv 11.834588
av 4.9431515
ille 0.03688867
Ġare 1.32965
Ġtypical 5.1840663
Ġof 0.112379715
Ġa 3.969311
Ġtown 3.4961772
Ġthat 2.0623
Ġis 1.2440723
Ġsocially 4.85958
Ġand 1.2390639
Ġeconomically 0.25733227
Ġdisadvantaged 2.5759928
Ġwith 3.9597452
Ġhigh 1.8717731
Ġmorbid 7.1965623
ity 0.006602983
Ġand 0.64554185
Ġmortality 0.25693446
Ġrates 0.66571003
. 0.5082532
ĠTo 5.0363364
Ġtackle 2.456361
Ġhealth 2.692322
Ġinequalities 0.10210351
Ġit 3.0883038
Ġis 0.13535656
Ġnecessary 1.3946174
Ġto 0.102649316
Ġaccurately 9.236943
Ġassess 2.7388773
Ġthe 0.62730604
Ġvariations 6.659024
Ġin 0.23581363
Ġhealth 0.7898907
Ġin 3.4468038
ĠGod 3.7686646
iv 0.6613612
av 0.045444008
ille 0.05728619
Ġand 1.0179718
Ġto 1.4470103
Ġlook 4.84043
Ġat 0.41621327
Ġthe 0.57766974
Ġdistribution 5.2653446
Ġof 0.08257876
Ġsocial 3.573715
Ġclass 3.9837751
Ġand 1.4445317
Ġethnic 3.7275825
Ġminority 3.700571
Ġthroughout 8.224754
Ġthe 0.13000594
Ġarea 2.7815547
. 0.1902575
ĠThis 2.3108833
Ġwill 1.764299
Ġgive 3.2430232
Ġan 1.2982832
Ġindication 0.9280554
Ġof 0.20108694
Ġwhere 2.3430016
Ġresources 2.9888532
Ġshould 1.1279833
Ġbe 0.023872182
Ġallocated 2.5088508
Ġin 2.197373
Ġorder 0.44592318
Ġto 0.017345596
Ġhave 4.7402387
Ġa 2.388035
Ġmaximal 5.145731
Ġimpact 0.86704934
. 1.6736718
ĠThe 2.059479
Ġhealth 2.807906
Ġinequalities 0.8318059
Ġthat 0.5479269
Ġexist 0.057542235
Ġtoday 8.573085
Ġin 1.1378856
ĠGod 0.27517173
iv 0.1149708
av 0.0018488711
ille 0.012405821
Ġcan 3.3488052
Ġalso 4.244705
Ġbe 0.21278453
Ġfound 4.95075
Ġin 0.212294
Ġother 1.5744392
Ġdeveloped 4.967871
Ġcountries 0.33200142
, 2.237544
Ġfor 3.3599486
Ġexample 0.08393635
Ġin 1.5996393
Ġthe 0.61627597
ĠUSA 1.2525862
ĠFirstly 15.329943
Ġwe 3.1021783
Ġhave 2.8892875
Ġdrawn 7.9664307
Ġon 2.9486651
Ġnational 5.0829353
Ġresearch 6.469179
Ġevidence 4.8725853
Ġto 0.9005733
Ġhelp 4.598852
Ġus 0.673418
Ġevaluate 4.938927
Ġwhy 6.0166564
Ġhealth 1.2290727
Ġinequalities 0.12016697
Ġexist 0.36057037
Ġand 1.4717577
Ġsecondly 2.4642146
Ġwhat 6.077312
Ġcan 1.7179229
Ġbe 0.028934859
Ġdone 0.015832745
Ġto 0.2500757
Ġlower 7.7513185
Ġthem 1.1405963
. 0.188616
ĠIn 3.0269163
Ġ1977 9.47737
Ġthe 1.3121517
Ġgovernment 3.6553867
Ġset 2.0198927
Ġup 0.2006059
Ġa 1.3437724
Ġworking 2.3091915
Ġparty 0.36670378
Ġon 1.7667356
Ġinequalities 2.1213994
Ġin 0.17138045
Ġhealth 0.09638399
Ġchaired 2.6048656
Ġby 0.003610413
ĠSir 0.78515905
ĠDonald 3.5551143
ĠBlack 11.8903055
, 2.399132
Ġthus 9.677265
Ġthe 2.207125
Ġreport 2.4310536
Ġbecame 3.1698456
Ġknown 0.11908761
Ġas 0.0143846255
Ġthe 0.15944313
ĠBlack 0.18488547
Ġreport 0.8080438
Ġand 3.5693028
Ġwas 1.6961579
Ġpublished 0.525754
Ġin 0.13228978
Ġ1980 0.7457303
. 0.20328914
ĠDep 10.567859
ri 0.2894817
vation 0.011806255
Ġand 1.8546461
Ġpoverty 3.7128
Ġin 3.3587868
Ġthe 1.5169772
Ġlowest 9.951246
Ġclasses 5.533005
, 3.7791562
ĠIV 13.013926
Ġand 0.82003987
ĠV 0.042552385
Ġwere 3.009969
Ġshown 3.6957016
Ġto 0.06888876
Ġbe 0.5577039
Ġcorrelated 5.026761
Ġwith 0.16937321
Ġpremature 4.8759785
Ġdeath 0.7657716
Ġand 1.3097632
Ġlower 5.4381304
Ġlife 0.48707232
Ġexpectancy 0.04876493
. 0.49607673
ĠThe 1.5082229
Ġreport 1.1747543
Ġput 5.776198
Ġforward 0.22203705
Ġfour 3.683674
Ġtypes 5.6609826
Ġof 0.007905678
Ġexplanation 2.3041055
Ġof 3.1405947
Ġsocial 4.1012664
Ġclass 0.89848924
Ġdifferences 1.2104801
Ġin 0.18761308
Ġhealth 0.24938042
: 1.25838
Ġarte 10.44666
fact 0.21638921
, 0.7633609
Ġsocial 3.16442
Ġselection 2.6817098
, 0.050460465
Ġbehavioural 4.5348053
/ 4.591741
cultural 2.875199
Ġand 0.46987742
Ġmaterial 1.7033219
ist 2.0704308
. 0.42962366
ĠIn 3.163057
Ġterms 3.6183867
Ġof 0.012748424
Ġexplanations 5.526904
Ġfor 1.4533877
Ġhealth 0.66229725
Ġinequalities 0.12893821
, 1.2422566
Ġthese 4.817989
Ġcategor 7.697062
isations 1.1800324
Ġhave 1.8150516
Ġbeen 0.888879
Ġdeveloped 4.5731487
Ġinto 2.3490067
Ġa 2.1564565
Ġset 4.77294
Ġof 0.017996069
Ġconsiderations 8.837813
Ġregarding 5.597509
Ġthe 0.9087934
Ġaccumulation 7.7921
Ġof 0.105673425
Ġexposures 5.900271
Ġto 2.2589278
Ġrisk 1.2049763
Ġfactors 0.64762187
Ġover 2.4599566
Ġthe 0.4298602
Ġlife 0.26976532
Ġcourse 0.17007482
. 0.8373699
ĠThese 2.6332867
Ġinclude 2.1344576
Ġlocal 9.817093
Ġlevels 5.7924647
Ġof 0.018082492
Ġeconomic 3.7918725
Ġand 2.3640716
Ġsocial 0.18513024
Ġdeprivation 0.32798046
Ġas 4.056001
Ġwell 0.17641841
Ġas 0.004931287
Ġincome 5.8683734
Ġdistribution 3.7873204
Ġand 1.834872
Ġpsych 7.366929
os 0.009557735
ocial 0.0039638346
Ġaspects 4.5992107
Ġof 0.67799586
Ġemployment 5.367004
. 1.262171
ĠThe 1.8703406
Ġconservative 11.736312
Ġgovernment 1.1735598
Ġresponded 4.785031
Ġby 2.013044
Ġpublishing 4.149642
Ġtheir 3.7667496
Ġwhite 3.5631757
Ġpaper 0.03717592
ĠThe 3.6616
ĠHealth 0.83740157
Ġof 0.030921688
Ġthe 0.039931025
ĠNation 0.24655463
Ġ( 3.0901477
1992 3.6544616
) 0.6475303
ĠThey 7.8325505
Ġdid 4.9595075
Ġnot 0.5343895
Ġimplement 4.3766446
Ġthe 1.0061113
Ġchanges 4.7735186
Ġwith 7.2225714
Ġcost 9.064768
Ġbeing 1.5431918
Ġthe 1.040091
Ġmain 0.575948
Ġreason 1.2318989
Ġstated 6.5939126
. 0.6051286
ĠIn 2.231564
Ġ1997 2.1450958
, 2.2695901
Ġthe 0.7625925
ĠNew 3.3045838
ĠLabour 0.043225512
Ġgovernment 0.34684622
Ġset 3.2052715
Ġup 0.26595196
Ġan 2.6984599
ĠIndependent 4.662332
Ġinquiry 5.019658
Ġinto 0.5449006
Ġinequalities 1.1810483
Ġin 0.084582075
ĠHealth 2.5566328
Ġchaired 1.1054199
Ġby 0.006709067
ĠSir 0.6476975
ĠDonald 0.5551842
ĠA 1.6478982
ches 0.00065230025
on 0.0017968614
. 0.5030369
ĠOn 6.49105
Ġa 3.6361656
Ġsocietal 5.586479
Ġbasis 3.7870383
, 0.59957516
Ġthe 1.139364
ĠA 2.4275324
ches 0.0032419849
on 0.020016318
Ġreport 0.26431358
Ġsuggested 3.7651377
Ġthat 0.3507734
Ġsocieties 7.636161
Ġin 3.5142407
Ġwhich 0.37576893
Ġa 4.382266
Ġwide 3.8351083
Ġgap 2.503797
Ġexists 1.0319959
Ġbetween 0.061723508
Ġrich 1.620798
Ġand 0.0040935827
Ġpoor 0.0072649335
Ġare 1.3297098
Ġmore 1.4631377
Ġprone 2.2053187
Ġto 0.0052323285
Ġsocial 3.077013
Ġproblems 1.6137598
Ġsuch 1.6431607
Ġas 0.0027176891
Ġhigh 3.0939028
Ġrates 2.1586325
Ġof 0.0033071067
Ġviolence 2.961343
Ġand 0.9261945
Ġother 4.868483
Ġcrime 2.4473517
. 0.7978339
ĠSoc 4.585138
ietal 3.4685159
Ġfactors 1.9797959
Ġinfluence 5.105517
Ġthe 1.4204683
Ġindividual 3.6392038
's 1.2683202
Ġhealth 1.4045755
Ġin 2.1886194
Ġa 1.2965549
Ġseries 6.91765
Ġof 0.003882456
Ġcomplex 2.105005
Ġways 0.40365404
Ġwhich 3.7974167
Ġfall 6.8786583
Ġwithin 3.3252203
Ġthe 0.6287895
Ġfield 4.825761
Ġof 0.039460763
ĠPsych 7.65903
one 5.7396584
uro 0.011325075
im 0.09956526
mun 0.0015207303
ology 0.0387502
, 3.057149
Ġwhich 2.1134493
Ġprovides 6.2379236
Ġevidence 2.2921262
Ġthat 1.1011552
Ġstress 2.3092005
Ġis 2.3649251
Ġstrongly 4.879572
Ġlinked 1.5786283
Ġto 0.146119
Ġsocial 5.616587
Ġrelations 6.4680514
, 1.4263502
Ġemployment 3.732822
Ġrelations 6.0044484
, 0.7789645
Ġand 2.1702175
Ġconditions 6.7136965
Ġof 0.68741024
Ġwork 1.3152306
. 0.64203125
ĠRichard 8.472062
ĠWilkinson 0.07687989
Ġin 3.5274146
Ġhis 0.42493218
ĠUn 9.631649
healthy 0.021423468
ĠSoc 0.031488653
ieties 0.00955527
ĠStress 11.696147
Ġis 3.0152097
Ġincreasingly 6.8032784
Ġreported 7.682801
Ġto 1.3075126
Ġbe 0.32903686
Ġassociated 3.0278547
Ġwith 0.019708242
Ġimmun 7.412028
os 1.4367797
upp 0.04785353
ression 0.05547883
ĠA 9.113565
ches 0.8409709
on 0.0053390493
Ġnotes 7.535661
Ġthat 0.28102908
Ġpeople 3.9358404
Ġwith 2.493266
Ġgood 4.7870274
Ġsocial 1.2495165
Ġnetworks 2.01404
Ġlive 4.0284233
Ġlonger 0.17642722
Ġand 1.2545508
Ġare 1.9238536
Ġat 4.716142
Ġlower 0.82448536
Ġrisk 0.03301778
Ġof 0.13635164
Ġdiseases 4.372758
Ġsuch 0.6148297
Ġas 0.005642789
Ġcoronary 2.2432582
Ġheart 0.08123372
Ġdisease 0.010937586
. 1.2299377
ĠThe 1.9541063
Ġmost 4.657911
Ġeffective 3.6386714
Ġway 0.8039045
Ġof 0.8146191
Ġtackling 1.7313472
Ġhealth 0.64319885
Ġinequalities 0.08104367
Ġin 2.3070514
ĠBritain 3.3903472
Ġas 6.4174647
Ġa 1.9342055
Ġwhole 0.12003317
Ġand 2.9284232
Ġlocally 4.0265384
Ġin 1.9040439
ĠGod 0.05987046
iv 0.12340627
av 0.0015418039
ille 0.0018588443
Ġis 0.31461596
Ġto 0.51702815
Ġreduce 2.63892
Ġpoverty 1.9773182
Ġand 0.7381706
Ġincome 3.5927103
Ġinequalities 1.8884178
Ġthat 5.7435455
Ġsubsequently 8.930154
Ġlead 1.7421056
Ġto 0.015662098
Ġhealth 1.778771
Ġinequalities 0.07352005
. 0.13778633
ĠThe 1.8173434
ĠBlack 5.462229
Ġreport 0.4697694
Ġsuggested 2.8710783
Ġan 4.8118434
Ġincrease 1.5148741
Ġin 0.10996884
Ġsocial 2.9605033
Ġsecurity 2.6676514
Ġand 2.8264582
Ġa 2.1015718
Ġfaire 4.799606
r 0.00035728698
Ġdistribution 0.6765952
Ġof 0.020165982
Ġbenefits 5.7443194
. 1.315318
ĠThe 1.5023894
Ġmain 4.245503
Ġaim 3.3155794
Ġwas 2.4652803
Ġthe 4.3464274
Ġabol 6.8535123
ishment 0.11923768
Ġof 0.013293647
Ġchild 3.724421
Ġpoverty 0.0370201
. 1.1119444
ĠA 3.2197983
ches 0.6766519
on 0.007136638
Ġreiterated 5.839142
Ġthe 1.2264155
Ġneed 1.223882
Ġto 0.8651127
Ġreduce 1.7708892
Ġincome 1.433769
Ġinequalities 0.5910066
Ġand 1.2862209
Ġreduce 4.9429584
Ġpoverty 1.4957944
. 0.9263906
ĠIncreased 6.979943
Ġaccessibility 8.071335
Ġto 0.26801234
Ġhealthcare 3.404835
Ġwas 2.6334734
Ġalso 0.8949794
Ġrecommended 2.1580122
Ġwith 3.2368526
Ġpriority 5.7337666
Ġgiven 1.1104529
Ġto 0.01732728
Ġparents 8.923798
Ġand 0.89685464
Ġchildren 0.4663367
. 0.5714459
ĠIt 3.6199527
Ġis 0.7670254
Ġimportant 2.0914445
Ġto 0.36357355
Ġhave 3.8645766
Ġa 0.8931402
Ġholistic 3.8527725
Ġapproach 0.29400155
Ġto 0.52394927
Ġhealth 1.2454317
Ġinequalities 1.1977925
Ġbecause 4.4991317
Ġthey 2.4363713
Ġare 0.612728
Ġinter 2.9159338
- 1.7277018
linked 2.750562
Ġwith 0.9953692
Ġother 1.3096243
Ġpriv 14.066969
ations 0.18033448
. 1.9521004
ĠVarious 8.321785
Ġorganisations 4.8564234
Ġwithin 5.476616
Ġand 3.5155785
Ġbeyond 2.9884818
Ġthe 0.2925706
ĠNHS 0.8315468
Ġmust 3.9341128
Ġwork 0.92358416
Ġin 2.254335
Ġtandem 2.7300615
. 3.0325847
ĠHealth 3.826765
Ġaction 6.2545314
Ġzones 0.70534784
Ġ( 2.6457205
HA 0.10951585
Z 0.00220836
's 3.9266808
) 0.06960292
Ġseek 7.599279
Ġto 0.027678259
Ġachieve 4.5783434
Ġthis 1.9655582
Ġgoal 3.3251538
. 0.9887135
ĠThe 1.5783422
Ġprimary 5.247041
Ġaim 0.9503974
Ġis 1.3989798
Ġto 0.11734916
Ġspecifically 8.461408
Ġimprove 2.7585318
Ġthe 0.5756924
Ġhealth 0.19768818
Ġof 0.32465127
Ġthe 0.9708718
Ġleast 5.3783484
Ġwell 0.47681227
Ġoff 0.32035503
. 1.7803621
ĠPatient 9.487762
- 3.6997838
driven 5.895203
Ġpolicies 7.0151215
Ġare 1.5258164
Ġpursued 7.1235847
Ġwhich 3.1739705
Ġimpart 11.97515
Ġa 1.6591207
Ġsense 1.6432841
Ġof 0.012994036
Ġempowerment 1.6891638
Ġand 1.5560637
Ġdecrease 8.521418
Ġap 7.3810344
athy 0.009481433
Ġand 2.087727
Ġdepression 4.6044354
. 0.38169414
ĠThey 3.9986022
Ġhave 3.0542464
Ġan 3.4042056
Ġarea 6.4828763
- 1.4584599
based 0.54487807
Ġapproach 0.84868455
Ġand 1.9183377
Ġhelp 6.184597
Ġto 1.0471356
Ġbuild 2.924767
Ġsocial 3.4668531
Ġnetworks 2.4211833
Ġwithin 4.0131445
Ġpopulations 6.9338603
Ġas 4.5480294
Ġrecommended 7.7106485
Ġby 0.22446693
ĠA 1.4311758
ches 0.0031780638
on 0.0030027598
. 0.15447026
ĠHowever 4.270094
, 0.63556546
ĠHA 2.609021
Z 0.002380958
's 0.15923992
Ġhave 1.3409113
Ġbeen 1.0056384
Ġaccused 3.6392372
Ġof 0.044705626
Ġmy 10.794368
opia 0.6603932
Ġbecause 2.863353
Ġthey 0.53692406
Ġonly 2.8616972
Ġreach 7.332405
Ġa 1.2387543
Ġminority 2.572496
Ġand 3.396802
Ġare 2.3613822
Ġtherefore 4.0832963
Ġlimited 3.4244554
. 2.5948496
ĠHA 3.6311474
Z 0.0009180464
's 0.08621387
Ġare 1.3298382
Ġstill 4.409806
Ġvery 3.572226
Ġmuch 0.33488718
Ġa 1.8761172
Ġwork 0.8878262
Ġin 0.05501466
Ġprogress 0.011617134
Ġand 1.1998119
Ġrepresent 6.707424
Ġa 0.8130867
Ġlong 4.386692
- 0.75734717
term 0.020103825
Ġfinancial 7.7788467
Ġcommitment 0.1826454
Ġby 2.9036233
Ġrunning 12.917336
Ġfor 3.1677334
Ġup 2.4781477
Ġto 0.006411003
Ġ7 4.962119
Ġyears 0.066074386
. 0.30694014
ĠI 7.433047
Ġbelieve 2.0950332
Ġthat 0.4057348
ĠHA 2.0095105
Z 0.0012208663
's 0.04776487
Ġin 4.0113034
Ġconjunction 3.365862
Ġwith 0.004738669
Ġother 1.916065
Ġnational 5.6758857
Ġpolicies 1.292084
, 3.3485162
Ġe 4.1812906
. 0.004335763
g 0.006342259
. 0.06320551
Ġthe 1.5834045
Ġintroduction 4.268573
Ġof 0.011844615
ĠHealth 4.8464313
Ġimprovement 6.1392837
Ġprogrammes 1.2208109
Ġ( 1.6028059
H 0.1462803
im 11.118394
P 4.1122184
), 2.0056806
Ġwill 1.4689593
Ġbe 2.3470187
Ġbeneficial 3.1349964
Ġbecause 4.9313602
Ġthey 0.6620581
Ġexplicitly 9.046107
Ġaddress 2.1123738
Ġthe 1.3093587
Ġlocal 5.014998
ities 6.7599335
Ġimmediate 8.144693
Ġneeds 0.9619462
. 0.7788306
ĠThe 1.6225284
Ġgovernment 2.6635582
Ġhas 1.3410965
Ġlaunched 5.2137556
Ġ' 5.282124
in 7.4363265
Ġcash 8.92925
' 0.8605046
Ġand 2.374183
Ġ' 0.082162924
in 0.27638677
Ġkind 0.028251607
' 0.02749965
Ġinitiatives 1.6718776
Ġto 1.0301436
Ġdecrease 6.79904
Ġpoverty 2.5907302
. 1.5190763
ĠUnemployment 7.9464254
Ġis 1.5054957
Ġhigher 5.6773477
Ġin 0.33237273
ĠGod 2.241777
iv 0.05873202
av 0.001546102
ille 0.0042601572
Ġthan 0.48711354
Ġin 1.322479
Ġother 1.6728691
Ġtowns 2.597109
. 2.1683223
ĠWith 5.0770235
ĠWelfare 10.356492
Ġto 0.71794564
Ġwork 1.0687551
Ġ- 7.4086385
ĠThe 5.1118264
ĠNew 0.9923004
ĠDeal 0.025906164
, 1.3040582
Ġa 3.6996765
Ġrange 4.665277
Ġof 0.0033521412
Ġprogrammes 3.2677286
Ġis 2.8172605
Ġin 2.9905455
Ġoperation 2.917871
Ġto 0.9276513
Ġencourage 3.335919
Ġunemployed 2.493898
Ġpeople 0.22624943
Ġto 0.4739146
Ġmove 3.6512654
Ġinto 0.729422
Ġwork 0.87129885
. 0.49574235
ĠSpecial 8.40672
Ġfocus 5.7500963
Ġhas 2.308382
Ġbeen 0.07895339
Ġput 1.9881778
Ġon 0.07000104
Ġthe 1.685686
Ġneeds 4.5706677
Ġof 0.018383814
Ġlone 1.4354805
Ġparents 0.12246522
Ġwho 3.0853844
Ġare 0.96807003
Ġover 4.749371
- 0.71909684
represented 0.021484245
Ġin 0.23779014
ĠGod 0.9904878
iv 0.03485401
av 0.002051446
ille 0.0037268922
Ġcompared 4.0204806
Ġto 0.23565407
Ġnational 3.0800095
Ġaverages 1.8806441
. 0.12527676
ĠEmployment 5.111053
Ġzones 7.042403
Ġaim 4.404284
Ġto 0.040302984
Ġhelp 2.7643425
Ġthe 2.2277398
Ġlong 1.9292955
Ġterm 1.2504792
Ġunemployed 0.041937765
Ġto 2.1867757
Ġimprove 4.8752418
Ġtheir 0.115521945
Ġemploy 2.7667892
ability 0.012283381
. 1.1933844
ĠFor 4.888262
Ġthose 2.6135917
Ġunable 3.9497955
Ġto 0.026487246
Ġwork 0.80320936
Ġ' 6.217706
in 0.8200516
Ġkind 1.8256779
' 0.04510898
Ġservices 4.583377
Ġincrease 7.8845644
Ġthe 2.0071108
Ġstandard 4.6415715
Ġof 0.026717527
Ġliving 0.1988173
. 1.1662084
ĠThe 1.7313154
ĠNew 2.1422937
ĠDeal 0.090927966
Ġfor 1.0756825
Ġcommunities 4.1450963
Ġ( 2.8188648
ND 0.12886797
C 0.18206553
) 0.06731991
Ġpath 13.007933
find 1.7635099
ers 0.08626631
Ġtackle 5.6500874
Ġsocial 2.4999356
Ġexclusion 0.16727012
Ġin 2.2135623
Ġthe 2.3329172
Ġcontext 4.7470975
Ġof 0.008039122
Ġthe 2.4520807
ĠSocial 6.275852
ĠEx 0.2778175
clusion 0.0018891806
ĠUnit 0.19055603
's 1.1998768
Ġreport 4.599159
Ġ- 4.62524
Ġ' 2.0556943
Bring 5.7746325
ing 0.0035656078
ĠBritain 0.9709255
ĠTogether 0.1350854
; 6.7696805
Ġa 2.9766488
Ġnational 2.3555415
Ġstrategy 0.28350797
Ġfor 0.5305922
Ġneighbourhood 1.9332683
Ġrenewal 0.008324027
. 3.0811799
ĠSure 11.508056
Ġstart 1.6480258
Ġis 1.4511617
Ġa 0.82235396
Ġcross 6.621656
- 0.5620244
dep 0.64866585
artment 0.0049526724
al 0.05849811
Ġstrategy 2.8866284
Ġspecifically 6.1059003
Ġfocusing 3.948297
Ġon 0.014139456
Ġthe 1.4580969
Ġhealth 3.4255264
Ġof 1.2760085
Ġchildren 0.9230054
Ġ( 5.723506
0 1.0014473
- 0.10637326
4 1.1683639
Ġyears 0.9045866
) 0.8611641
Ġand 0.43638608
Ġtheir 0.6325331
Ġfamilies 0.41793513
Ġin 3.1160822
Ġan 4.5025654
Ġattempt 0.77306294
Ġto 0.007887477
Ġimprove 2.481963
Ġtheir 1.9865414
Ġhealth 2.0435016
Ġoutlook 8.283462
. 0.7001802
ĠThis 3.1570106
Ġupstream 13.088173
Ġpolicy 2.9196165
Ġaims 2.5116415
Ġto 0.036335744
Ġprime 9.944711
Ġchildren 1.3065099
Ġso 4.0445685
Ġthat 0.26935965
Ġthey 0.3035259
Ġthrive 7.50857
Ġwhen 3.455845
Ġthey 0.17136933
Ġget 3.0609787
Ġto 0.4158364
Ġschool 0.13219507
. 0.5955783
ĠEducation 6.552999
ĠAction 5.370719
ĠZ 0.2125828
ones 0.00077821646
Ġ( 0.9203964
EA 0.20164572
Z 0.003937205
s 2.476576
), 3.6736379
Ġestablished 5.3706245
Ġby 2.0455608
Ġthe 0.45943338
ĠD 3.0909913
f 0.06454343
EE 1.604276
Ġin 2.0702796
Ġ1998 1.640473
Ġare 2.7782068
Ġanother 3.078652
Ġupstream 4.4183517
Ġpolicy 0.5037074
Ġaiming 3.961968
Ġto 0.052313622
Ġhelp 3.439384
Ġchildren 1.2659723
Ġachieve 2.7808602
Ġtheir 1.894992
Ġfull 1.0125265
Ġpotential 0.16430213
Ġin 2.3025312
Ġareas 5.2253227
Ġof 0.46559972
Ġhigh 1.9792899
Ġsocial 2.1192877
Ġand 2.2152998
Ġeconomic 0.29237223
Ġdeprivation 0.25757948
. 0.14590822
ĠConc 11.023522
urrent 0.034345947
Ġto 3.3728786
Ġtackling 6.990423
Ġincome 4.5556035
Ġinequalities 0.7663005
Ġit 3.624594
Ġis 0.061123736
Ġvital 3.3069904
Ġto 0.32730922
Ġincrease 3.3120756
Ġaccess 2.1476362
Ġto 0.02998235
Ġprimary 2.68851
Ġhealthcare 1.5367923
. 1.1625288
ĠProblems 7.993426
Ġaccessing 5.821641
Ġprimary 1.2794784
Ġcare 0.9552364
Ġservices 2.9137998
Ġtend 5.9612174
Ġto 0.0109856725
Ġbe 0.56613934
Ġamong 7.0708833
Ġparticular 8.30389
Ġgroups 0.4656012
Ġfor 5.789366
Ġexample 0.1027013
, 1.6671342
Ġthe 1.453693
Ġhomeless 2.4826603
, 0.49275416
Ġdrug 3.4248333
Ġusers 0.8404418
, 0.61518145
Ġrefugees 3.5469766
, 0.87962085
Ġethnic 3.04493
Ġminorities 0.21093424
, 0.9854525
Ġand 1.7951823
Ġin 5.440293
Ġparticular 2.1019406
Ġareas 4.8049984
; 6.305797
Ġinner 1.7083122
Ġcities 0.7933484
, 1.4187076
Ġsparse 6.9035606
ly 0.06611443
Ġpopulated 0.038590666
Ġrural 0.41874957
Ġareas 0.24303837
, 1.0992591
Ġhousing 5.954407
Ġestates 0.09484044
Ġin 4.024286
Ġdeprived 2.1625967
Ġareas 0.40124017
. 1.0467656
ĠThe 1.7628225
ĠSocial 4.7147017
Ġexclusion 4.351873
Ġunit 1.3913549
Ġaims 5.0372243
Ġto 0.01836493
Ġreduce 2.7088253
Ġsocial 2.4491518
Ġexclusion 0.05738157
Ġfaced 8.925552
Ġby 0.032261502
Ġpeople 2.6472507
Ġwhen 6.862319
Ġthey 1.329616
Ġexperience 4.5300097
Ġa 2.0606608
Ġcombination 1.9019527
Ġof 0.0053661955
Ġlinked 6.420682
Ġproblems 0.7811546
Ġsuch 1.5156543
Ġas 0.0042375885
Ġunemployment 1.0399742
, 0.0844471
Ġpoverty 2.4298317
, 0.29769728
Ġpoor 0.5084546
Ġhousing 0.6879652
Ġand 1.3957325
Ġfamily 4.140999
Ġbreakdown 0.21840337
. 0.21870105
ĠA 3.5182712
Ġdetailed 7.60547
Ġknowledge 4.110963
Ġof 0.095404334
Ġthe 0.74215627
Ġproblems 3.3274407
Ġfaced 1.2459415
Ġby 0.15377818
Ġethnic 5.0678263
Ġminorities 0.6084884
Ġis 1.0384346
Ġessential 1.749179
Ġbecause 3.0818782
Ġthey 1.505024
Ġare 0.7171127
Ġfound 5.912886
Ġin 1.0738558
Ġgreater 3.0658202
Ġnumbers 0.38056123
Ġin 0.18257044
ĠGod 1.6942104
iv 0.03867077
av 0.0012820382
ille 0.00089710695
Ġthan 0.8576023
Ġin 1.069116
Ġother 0.6676107
Ġtowns 0.5421117
. 0.24321584
ĠIf 6.135459
Ġa 3.4038658
Ġlarge 4.061983
Ġproportion 0.6344856
Ġof 0.04463208
Ġan 3.0257044
Ġethnic 0.25942937
Ġminority 0.53446597
Ġdelay 14.314234
Ġseeking 0.93189347
Ġhealth 2.6548057
Ġcare 0.23599255
Ġdue 3.9902256
Ġto 0.0074247094
Ġlanguage 1.2884939
Ġbarriers 1.4089701
Ġit 3.6313562
Ġis 0.79283446
Ġthe 5.9281464
Ġresponsibility 3.195986
Ġof 0.0074132388
Ġthe 0.61972
Ġprimary 3.9563136
Ġcare 0.50468963
Ġgroup 6.3165946
Ġtrust 8.154309
Ġto 0.26107544
Ġovercome 4.971219
Ġthis 0.9694924
Ġhealth 7.0367603
Ġinequality 0.2573851
. 0.4675297
ĠThere 3.7349875
Ġis 0.8962421
Ġevidence 1.8440875
Ġto 1.1697364
Ġsuggest 0.2775208
Ġthat 0.051436346
Ġthe 2.3065765
Ġdisabled 9.795111
Ġand 2.2058294
Ġolder 3.640684
Ġpeople 0.19335935
Ġmay 3.7684858
Ġbe 1.4247295
Ġmore 2.3214574
Ġvulnerable 1.7559559
Ġto 0.3064779
Ġthe 3.0012896
Ġeffects 1.0002156
Ġof 0.0059816395
Ġpoverty 1.176294
Ġand 1.1226244
