If 5.313755
Ġa 3.915337
Ġtens 12.0402155
ile 2.13151
Ġforce 3.4348156
Ġ( 4.351442
F 2.5620863
) 0.44584408
Ġis 0.6262654
Ġapplied 0.66825485
Ġto 0.50745505
Ġan 2.5163608
Ġatom 7.6887603
Ġin 2.8781707
Ġa 0.73974067
Ġcrystal 4.4785028
, 0.8347956
Ġthen 2.2013128
Ġthe 0.6078941
Ġspacing 8.596242
Ġbetween 0.5507179
Ġthe 1.0896572
Ġatoms 0.5127647
Ġ( 3.188135
a 4.206877
) 0.60965
Ġin 3.632359
Ġthat 3.5586212
Ġrow 7.4304686
Ġof 2.2502043
Ġthe 2.2218919
Ġcrystal 0.18843623
Ġwill 2.7869997
Ġbe 0.40434262
Ġincreased 5.6091785
Ġ( 2.2534778
x 6.8430786
). 1.8932688
ĠThe 2.0725734
Ġrestoring 10.0467415
Ġforce 0.14173557
Ġacting 5.195769
Ġbetween 3.0607238
Ġthe 0.4381116
Ġatoms 0.44389203
, 4.436842
Ġwill 3.932291
Ġbe 0.41318646
Ġproportional 3.7786129
Ġto 0.022736069
Ġthis 4.3781548
Ġincrease 2.7705672
Ġ( 2.4962776
F 1.730154
Ġ= 4.1271496
Ġk 3.5520937
Ġx 4.204741
). 1.1861403
ĠIn 3.297578
Ġa 2.5444672
Ġsimple 4.8269243
Ġcubic 5.9424267
Ġstructure 5.961796
, 0.41772205
Ġthere 3.5700939
Ġwill 1.2263291
Ġbe 0.11428919
Ġa 1.3990084
ĠStress 12.57536
, 3.8200684
Ġis 7.317634
Ġthe 1.1123483
Ġforce 3.21479
Ġper 3.7567384
Ġunit 0.09993115
Ġarea 1.0908989
Ġon 3.773161
Ġthe 0.49593362
Ġcrystal 1.7359661
, 1.9049385
Ġand 1.4107212
Ġstrain 7.506893
Ġis 0.85648894
Ġthe 0.20938407
Ġratio 4.3345885
Ġof 0.23422047
Ġthe 0.750497
Ġincrease 6.561644
Ġin 0.12869413
Ġseparation 8.378276
Ġto 1.1604496
Ġthe 0.16918486
Ġinitial 4.658045
Ġseparation 2.1788492
. 0.4463439
ĠSo 3.9237764
Ġthe 1.5795326
Ġratio 5.2504706
Ġof 0.51963824
Ġstress 1.1988944
Ġto 0.3781177
Ġstrain 0.26042706
Ġcan 3.4978232
Ġbe 0.054719917
Ġexpressed 1.3642769
Ġas 0.22198318
: 1.7548158
Ġ( 3.4887912
More 9.721548
Ġcomplicated 4.5571556
Ġcrystal 6.2059693
Ġstructures 0.6188019
Ġrequire 3.3452237
Ġmore 1.4544592
Ġcomplicated 2.5139205
Ġexpressions 1.1117393
) 2.551465
ĠThis 5.1790295
Ġratio 2.9892743
Ġof 2.5466914
Ġstress 0.42949134
Ġto 0.20984912
Ġstrain 0.059747573
Ġis 1.1311765
Ġknown 2.336329
Ġas 0.016735671
Ġan 5.730775
ĠElastic 7.155642
Ġmod 2.291815
ulus 0.012579463
. 1.0579373
ĠThe 1.9992603
ĠElastic 3.9458897
Ġmod 0.15645339
ulus 0.028328069
Ġof 1.5966951
Ġa 0.31756958
Ġsolid 2.2873266
Ġis 0.51536345
Ġ" 7.3591948
the 1.3160521
Ġratio 1.2009262
Ġof 0.11993027
Ġthe 0.71604913
Ġstress 0.82903796
Ġapplied 5.6531253
Ġto 0.2909257
Ġa 2.118886
Ġbody 5.280725
Ġto 0.95988077
Ġthe 0.21908951
Ġstrain 3.4221656
Ġproduced 4.641564
" 2.987133
ĠThe 3.4716747
Ġapplication 7.7792487
Ġof 0.020247297
Ġforces 4.525035
Ġin 2.571715
Ġdifferent 5.4658785
Ġways 2.3169675
Ġto 1.8434657
Ġa 1.3022543
Ġmaterial 2.560739
Ġcan 1.8484949
Ġproduce 2.1967573
Ġdifferent 0.62307835
Ġtypes 3.152135
Ġof 0.014366727
Ġstress 2.351286
Ġand 2.3846452
Ġstrain 0.41765913
, 2.3499823
Ġand 2.033445
Ġeach 4.8940196
Ġof 2.409973
Ġthese 0.27059045
Ġhas 4.62236
Ġa 0.92130417
Ġcorresponding 3.397779
Ġelastic 1.7354279
Ġmod 0.12736373
ulus 0.0064453147
. 0.2978499
ĠThe 1.8062161
Ġapplication 5.7226644
Ġof 0.011304579
Ġa 1.3334643
Ġ' 9.035287
t 3.0011292
ens 0.8937557
ile 0.0018252848
Ġforce 1.6827184
', 3.2854908
Ġwhich 3.2789469
Ġis 0.81367344
Ġperpendicular 4.716946
Ġto 0.06772694
Ġthe 0.1406178
Ġcross 7.0286946
- 0.42980555
section 0.6165752
Ġof 0.31431794
Ġa 1.6717553
Ġbody 3.9679496
, 0.38510525
Ġacts 5.861008
Ġto 2.0030572
Ġ' 4.326361
st 2.2667794
retch 0.29061687
' 0.09577192
Ġthe 0.27424327
Ġbody 0.5291621
. 1.6759399
ĠIn 3.0135567
Ġthis 1.6899517
Ġcase 0.61025125
, 0.3833826
Ġthe 0.3360492
Ġ' 3.802015
t 1.1361134
ens 0.018305134
ile 0.0052036275
Ġstress 3.4426847
' 0.11572494
Ġis 0.6330849
Ġthe 1.7805226
Ġratio 3.7564404
Ġof 0.07816473
Ġthe 0.2860485
Ġtens 4.227258
ile 0.008701122
Ġforce 0.662529
Ġ( 2.7447438
F 0.2890108
) 0.1615133
Ġto 0.39005542
Ġthe 0.03733294
Ġcross 4.662319
- 0.051852413
sectional 0.12884925
Ġarea 1.0660007
Ġ( 1.1547884
A 0.86625516
), 2.241968
Ġand 0.8518858
Ġthe 0.21982186
Ġ' 0.23231322
t 1.2742176
ens 0.01982071
ile 0.00029724615
Ġstrain 0.10101047
' 0.037663765
Ġis 0.06535822
Ġgiven 7.501152
Ġby 0.08220744
Ġthe 1.0505255
Ġratio 1.0612774
Ġof 0.12868728
Ġthe 0.20960926
Ġextension 7.7056375
Ġof 0.4836118
Ġthe 0.20762172
Ġbody 1.1294047
Ġ( 1.724918
ĠUsing 14.775294
Ġthese 4.6707683
Ġdefinitions 3.7054484
Ġwith 7.422405
Ġequation 7.970512
Ġ1 2.9717276
. 2.2610416
1 2.0469892
Ġwe 2.9964142
Ġcan 0.34041092
Ġdefine 3.818389
Ġthe 0.6227113
Ġ' 3.298321
Young 7.898562
's 0.16853443
Ġmod 0.20291165
ulus 0.036893558
' 0.35301012
Ġ( 2.654817
E 4.180514
) 1.2332811
Ġas 1.1788969
ĠSimilarly 11.838572
, 0.53553975
Ġthe 0.50937885
Ġapplication 6.765337
Ġof 0.0061926683
Ġa 0.31247735
Ġ' 0.16892765
t 2.7368188
ors 3.6307962
ional 0.19645405
Ġforce 0.18056029
', 0.9033915
Ġparallel 4.392631
Ġto 0.018326443
Ġthe 0.07767534
Ġcross 0.13226473
- 0.018416293
sectional 3.5138028
Ġarea 0.46614856
Ġof 0.8164649
Ġthe 1.2135899
Ġbody 0.039524134
, 0.24924092
Ġwhich 4.512722
Ġacts 1.2307849
Ġto 0.19367616
Ġ' 0.59366655
tw 2.2968516
ist 0.0072668553
' 0.040357716
Ġthe 0.06039096
Ġbody 0.021570481
. 2.0363839
ĠThe 1.3923969
Ġ' 0.52807814
t 0.35270202
ors 0.0091735795
ional 0.018507123
Ġstress 0.1447517
' 0.036361024
Ġis 0.15473895
Ġthen 5.8787208
Ġthe 0.35054645
Ġratio 0.21740276
Ġof 0.017986843
Ġthe 0.073761344
Ġtang 6.7063603
ential 0.03831286
Ġforce 0.49718505
Ġ( 0.22621831
F 0.07319005
) 0.23005706
Ġto 0.09666259
Ġthe 0.011088851
Ġarea 4.052475
Ġ( 0.9394089
A 0.08200732
) 0.7803671
Ġon 4.923057
Ġwhich 4.543968
Ġit 2.1402895
Ġacts 0.60031956
, 0.87887675
Ġwhile 4.4036574
Ġthe 0.019664533
Ġ' 0.027260803
t 0.018622737
ors 0.00567384
ional 0.003985679
Ġstrain 0.028659418
' 0.011326159
Ġis 0.051464085
Ġgiven 1.3595788
Ġby 0.031650927
Ġthe 0.05506737
Ġangle 6.6092563
Ġof 1.5008775
Ġde 7.9325194
formation 0.2359509
Ġ( 1.1487039
ĠIf 8.051652
Ġa 2.8417823
Ġforce 2.6385145
Ġis 0.52357614
Ġapplied 0.11891882
Ġmomentarily 12.735458
, 1.908219
Ġthe 1.4319657
Ġeffect 4.8029637
Ġwill 2.6401873
Ġpropagate 7.302647
Ġdown 4.904041
Ġthe 0.1845634
Ġbody 2.9503155
Ġin 3.4086237
Ġthe 1.3283825
Ġform 2.951768
Ġof 0.012609403
Ġa 0.733174
Ġwave 5.0148444
Ġpulse 9.3263855
. 0.8473027
ĠFrom 6.029892
Ġequations 4.6904025
Ġ1 0.2041628
. 0.0064727915
2 1.7022846
Ġand 0.3621544
Ġ1 0.02318836
. 0.000673174
3 0.10703562
Ġwe 0.5457054
Ġcan 0.21126306
Ġsee 2.27211
Ġthat 0.09488003
Ġthe 0.61293757
Ġforce 3.3259547
Ġis 2.2384403
Ġrelated 5.964826
Ġto 0.08514767
Ġthe 0.19820325
Ġelastic 3.9493246
Ġmod 0.6740487
ulus 0.014716165
Ġof 1.865135
Ġthe 0.24684452
Ġmaterial 0.38230205
, 1.8871746
Ġand 0.96687883
Ġso 3.587582
Ġappears 9.178699
Ġin 1.1772467
Ġthe 0.954669
Ġwave 7.241643
Ġequation 2.6243696
Ġdescribing 8.448255
Ġa 2.8000755
Ġlongitudinal 7.138426
Ġwave 1.6272241
Ġtravelling 5.0930576
Ġthrough 1.9233007
Ġa 0.531565
Ġthin 5.72452
Ġsolid 3.1253655
ĠWhere 11.686939
ĠMaking 16.044748
Ġthe 2.1161323
Ġvelocity 10.216825
Ġof 1.5687248
Ġthe 0.7419667
Ġwave 0.68144953
Ġ( 3.8497913
c 6.1731486
): 5.9431143
ĠWhen 6.1111426
Ġdealing 7.7031646
Ġwith 0.014624531
Ġa 1.164901
Ġcyl 7.1254873
ind 0.006221098
rical 0.00724422
Ġrod 5.0000286
Ġhowever 8.462554
, 0.1304588
Ġthe 0.7371669
Ġbody 5.228134
Ġis 0.9295579
Ġnot 1.2395035
Ġthin 4.8168416
, 1.1132034
Ġand 0.74755555
Ġso 0.6519202
Ġthe 0.57017916
Ġwave 2.1478882
Ġequation 3.853071
Ġbecomes 2.8140473
Ġmuch 3.37161
Ġmore 0.22644517
Ġcomplex 1.2096127
. 0.40397716
ĠA 3.9902515
Ġsimilar 3.9564998
Ġprocess 3.3864884
Ġfollows 6.8897777
Ġfor 1.2318838
Ġthe 1.5695194
Ġshe 6.069502
ar 0.113062285
Ġmod 1.5391157
ulus 0.1064365
, 1.5121992
Ġwhere 2.560712
Ġwaves 8.458257
Ġalso 6.613542
Ġpropagate 1.2807211
Ġalong 2.900994
Ġthe 0.7544554
Ġbody 1.8008691
Ġwhen 5.141612
Ġa 2.7860644
Ġmoment 6.8449416
ary 5.1398563
Ġt 5.927203
ors 0.044831667
ional 0.1347502
Ġforce 0.55714077
Ġis 0.15216625
Ġapplied 0.044015437
. 0.73212993
ĠWhen 4.0375338
Ġthese 4.735386
Ġ' 4.107687
el 7.884224
astic 0.0035903149
' 0.9934539
Ġwave 3.6450212
Ġpulses 5.6320515
Ġtravel 2.0664933
Ġalong 1.4191605
Ġa 1.1334932
Ġcyl 4.2266874
ind 0.0012465853
rical 0.0028472724
Ġrod 0.21323378
, 0.39010492
Ġlength 10.44163
Ġ( 2.8343127
L 1.9800407
), 1.9952549
Ġthey 3.197071
Ġare 1.8674581
Ġreflected 6.0492926
Ġback 2.2125444
Ġwhen 6.594516
Ġthey 0.7570154
Ġreach 1.9174566
Ġthe 0.4270034
Ġend 1.8086576
. 3.913426
ĠIf 3.735069
Ġa 2.4069126
Ġcontinuous 6.208662
Ġwave 2.0452533
Ġwere 5.958041
Ġapplied 4.276929
, 1.6248734
Ġan 5.6032996
Ġ' 2.8774374
exc 5.498646
ited 0.75726366
Ġstate 3.123743
' 0.09522573
Ġcould 3.8354878
Ġbe 0.6738938
Ġset 5.079547
Ġup 0.15579174
Ġalong 4.366819
Ġthe 0.17100881
Ġrod 0.9818306
Ġat 3.6705832
Ġparticular 7.4026623
Ġfrequencies 3.8646448
. 1.2357352
ĠIf 3.4807596
Ġsuch 3.892274
Ġa 0.64319193
Ġcontinuous 4.491155
Ġwave 0.1087757
Ġis 1.2079864
Ġset 5.1305966
Ġup 0.050043914
Ġusing 7.2267323
Ġa 0.66314584
Ġt 3.7059894
ors 0.15446492
ional 0.1589747
Ġvibration 5.4071474
, 0.3998556
Ġthe 1.2030209
Ġvelocity 5.3574
Ġof 0.44017357
Ġthe 0.20101807
Ġwave 0.538019
Ġis 1.9880567
Ġgiven 2.843013
Ġby 0.047004607
ĠAnd 8.044854
Ġfrom 4.3032475
Ġsimple 7.596862
Ġwave 3.665081
Ġmechanics 4.515354
, 0.87411267
Ġit 2.2470133
Ġcan 0.85603374
Ġbe 0.048942376
Ġshown 1.589835
Ġthat 0.036355957
Ġthe 0.6438821
Ġfrequency 3.2462869
Ġ( 3.4041617
f 0.563506
) 0.20218746
Ġat 2.6631467
Ġwhich 0.08447447
Ġthe 0.5816198
Ġoscill 4.616538
ations 2.803762
Ġwill 3.8858821
Ġproduce 4.5897145
Ġreson 6.6387005
ances 0.60190654
Ġis 1.3454605
: 3.785514
ĠThe 2.296945
Ġfrequencies 4.3798003
Ġat 1.6535323
Ġwhich 0.017720286
Ġreson 2.5051162
ances 0.060452003
Ġwould 3.4512222
Ġbe 0.9361514
Ġset 2.0038593
Ġup 0.06232606
Ġalong 4.32004
Ġthe 0.44915447
Ġrod 0.35409874
Ġare 0.9063287
Ġclearly 6.6456676
Ġdependent 4.3334975
Ġon 0.111960165
Ġthe 0.15217909
ĠShe 8.9746685
ar 0.026942711
Ġmod 0.088964835
ulus 0.031276155
. 1.8268199
ĠComb 8.470743
ining 0.0128180925
Ġequations 1.6858525
Ġ1 0.1730266
. 0.0041943737
6 3.9157102
Ġand 0.29906663
Ġ1 0.025134757
. 0.0005466157
7 0.2423693
Ġproduces 7.1933126
Ġthis 5.065914
Ġequation 1.7731644
Ġrelating 6.478066
Ġthe 0.32393587
ĠShe 4.9412584
ar 0.00096130127
Ġmod 0.033788633
ulus 0.016923457
Ġto 0.57547
Ġthe 0.155376
Ġreson 5.382111
ant 0.09883143
Ġfrequencies 1.6109356
ĠWhere 7.7521534
Ġf 4.6401014
ĠThe 5.37496
Ġplotting 12.897686
Ġof 0.38472417
Ġf 3.8028398
ĠA 6.884285
Ġsimilar 6.0139894
Ġtheory 6.4445963
Ġapplies 3.532335
Ġto 0.28469074
Ġ' 4.7016077
bending 6.1348157
' 0.42186326
Ġoscill 8.672328
ations 0.21278638
, 1.5741907
Ġfor 4.385345
Ġcalculating 9.224929
ĠYoung 7.300366
's 0.048901875
Ġmod 0.06635555
ulus 0.08700482
. 1.7025323
ĠHowever 5.337171
Ġthis 3.809699
Ġtime 3.1240265
Ġthe 0.8462086
Ġvelocity 5.8511767
Ġof 0.44676915
Ġthe 0.1760114
Ġwave 0.7715604
Ġis 0.60775226
Ġnot 1.9102733
Ġsolely 7.4982085
Ġdependent 1.0409914
Ġon 0.057456188
ĠE 9.179742
Ġand 2.824501
ĠThe 7.380481
Ġequation 3.5521238
Ġfor 0.90981853
Ġthis 3.686148
Ġis 1.4473897
ĠThis 4.4484267
Ġtime 3.4488025
Ġthe 1.0556651
Ġfrequency 2.3525074
Ġdoes 6.2102275
Ġnot 0.1504024
Ġscale 8.981125
Ġwith 1.228312
Ġn 7.720944
, 0.7346493
Ġbut 0.8443226
Ġrather 1.7497885
Ġn 3.9655952
ĠPlot 14.357333
ting 0.5372642
Ġa 3.7419927
Ġgraph 5.4782925
Ġof 0.29246622
Ġn 3.4542427
Ġagainst 4.770261
Ġthe 1.9276401
Ġsquare 5.057304
Ġroot 0.381128
Ġof 0.075255744
Ġthe 1.2924333
Ġfrequency 1.5215158
Ġwill 4.774829
Ġproduce 2.5725932
Ġa 0.94842225
Ġstraight 2.4817042
Ġline 0.027822576
Ġgraph 5.682905
Ġwith 3.7049975
Ġequation 7.7799506
: 5.018823
ĠYoung 7.129622
's 0.08155615
Ġmod 0.12955953
ulus 0.048419837
Ġcan 2.952772
Ġnow 3.6720448
Ġbe 0.022968773
Ġcalculated 1.4947312
Ġeither 7.6587477
Ġfrom 1.7251079
Ġthe 0.7115028
Ġgradient 9.536365
Ġ( 2.6957395
A 5.061536
) 0.51476085
Ġof 1.2897799
Ġthe 0.41423264
Ġgraph 4.6843596
, 0.78716063
Ġor 0.15361032
Ġthe 2.2019827
Ġy 6.555227
- 0.106020756
inter 1.9191433
cept 0.0030568037
Ġ( 0.69075334
B 1.9368546
): 4.418861
ĠFor 4.2250586
Ġisot 9.245931
rop 0.045605075
ic 0.009716315
Ġmaterials 0.66890806
Ġ( 2.8563094
a 4.0323687
Ġmaterial 4.608389
Ġwhose 3.272151
Ġphysical 5.2071576
Ġproperties 0.56702596
Ġare 0.5443655
Ġindependent 2.412707
Ġof 0.023269862
Ġdirection 4.542017
ĠThis 13.8978195
Ġcan 3.0522268
Ġalso 4.0899596
Ġbe 0.0648624
Ġexpressed 1.8945559
Ġin 1.3380766
Ġterms 0.32618192
Ġof 0.00757154
Ġthe 0.948126
ĠShe 4.5824423
ar 0.00568523
Ġand 7.6304717
ĠYoung 1.8774277
's 1.2511718
Ġmod 0.06003064
uli 0.69214576
Ġin 5.147353
Ġthe 1.7113711
Ġform 2.478747
ĠAnd 9.337394
Ġso 2.6785119
Ġan 5.1745205
Ġestimate 5.9178243
Ġof 0.24319229
Ġthe 0.6248491
ĠPo 9.172795
isson 1.0569159
Ġratio 3.075385
Ġcan 1.4970927
Ġbe 0.031618446
Ġcalculated 1.8123112
Ġfrom 1.6862406
Ġthe 0.6287503
ĠShe 3.3209293
ar 0.0018945544
Ġand 2.9157453
ĠYoung 0.032128364
's 0.18398598
Ġmod 0.029955266
uli 0.10148753
Ġcalculated 7.256058
Ġearlier 7.0384746
. 0.7055997
ĠTwo 7.856591
ĠV 8.946398
- 3.9032302
blocks 9.539865
Ġwere 4.7222524
Ġused 1.8385099
Ġto 0.601899
Ġsupport 7.4215775
Ġa 3.1838584
Ġcyl 4.1619587
ind 0.004331394
rical 0.012236861
Ġbar 5.8390894
, 1.8934506
Ġwith 2.7802997
Ġsoft 10.390909
Ġpadding 8.686484
Ġunder 4.5249805
Ġthe 0.38845885
Ġbar 0.4710034
Ġso 4.3907356
Ġas 2.1121514
Ġto 0.2008034
Ġhave 4.685146
Ġas 5.2627373
Ġlittle 0.73238534
Ġeffect 3.9104848
Ġon 0.40455624
Ġthe 0.23653048
Ġvibration 2.8887615
Ġof 1.8793266
Ġthe 0.0410085
Ġbar 0.33489126
Ġas 0.36983734
Ġpossible 0.017297687
. 0.14272395
ĠThe 0.97252774
Ġend 6.662914
Ġof 0.40841824
Ġthe 0.36473033
Ġbar 0.20517956
Ġcontained 7.901112
Ġa 0.52951676
Ġcoil 6.2599134
, 2.8224378
Ġand 1.5100344
Ġis 5.620572
Ġplaced 3.7866104
Ġbetween 2.714595
Ġthe 0.9957847
Ġtwo 1.2466676
Ġpoles 6.3400497
Ġof 0.23017071
Ġa 0.4495439
Ġpermanent 6.1499267
Ġmagnet 0.031410046
, 1.825835
Ġas 3.814368
Ġcentrally 14.052019
Ġas 0.5988447
Ġpossible 0.19855213
, 2.1858807
Ġto 2.0632336
Ġmaxim 5.0291133
ise 0.0017986526
Ġthe 0.35697237
Ġstrength 4.194837
Ġand 3.2706296
Ġuniform 4.267802
ity 0.0397
Ġof 0.055558912
Ġthe 0.15021826
Ġfield 5.485426
. 0.6480514
ĠThe 0.8599392
Ġtwo 3.6776786
Ġends 3.5565472
Ġof 0.10733851
Ġthe 0.07793653
Ġcoil 2.6374085
Ġwere 0.53521246
Ġconnected 2.337792
Ġto 0.698323
Ġan 3.1878347
Ġalternating 4.7082076
Ġcurrent 0.34871697
Ġ( 2.4535758
A 3.188194
. 5.3911686
C 0.2097812
.) 0.4392747
Ġsupply 2.975061
, 0.87006736
Ġthe 4.952981
Ġfrequency 3.923961
Ġof 0.29159927
Ġwhich 0.32161286
Ġcould 3.2780879
Ġbe 0.109953806
Ġvaried 1.1863016
Ġusing 3.5985382
Ġan 2.2561567
Ġ' 4.440804
osc 4.31643
ill 0.05433337
ator 0.6889276
'. 1.2600325
ĠFor 4.5030713
Ġmeasuring 6.680928
Ġthe 0.46634686
Ġbending 6.7426
Ġmodes 6.058213
, 1.2480533
Ġbars 9.931951
Ġwith 2.1482728
Ġcoils 6.4635386
Ġwrapped 5.746092
Ġaround 0.1474478
Ġthe 0.789281
Ġradius 8.1919775
Ġof 0.4470862
Ġthe 0.3148366
Ġbar 0.396928
Ġwere 1.0558695
Ġused 0.2605037
. 0.64326364
ĠFor 3.6650503
Ġthe 2.0829265
Ġt 5.180986
ors 0.0066217002
ional 0.071054906
Ġmodes 1.076969
, 0.4486851
Ġthe 1.1743597
Ġbars 1.9947383
Ġhad 2.8512642
Ġcoils 1.5289097
Ġparallel 8.466454
Ġto 0.036706492
Ġtheir 4.065802
Ġlength 3.0437412
. 1.5405968
ĠOn 6.1560097
Ġthe 0.95359004
Ġother 2.852024
Ġend 0.8516637
Ġof 0.112163514
Ġthe 0.076960355
Ġrod 3.1188517
, 0.6267803
Ġa 1.0652133
Ġgram 11.775314
ophone 1.7886326
Ġpickup 9.771067
Ġwas 0.3734313
Ġrested 10.236506
. 4.109354
ĠIn 3.7913291
Ġorder 1.7624209
Ġto 0.048153665
Ġmaxim 5.0951004
ise 0.0007134374
Ġthe 0.25584954
Ġsensitivity 3.551779
Ġof 0.2276089
Ġthe 0.08425877
Ġpickup 1.4797902
, 0.4681911
Ġit 1.9657665
Ġwas 0.19421518
Ġplaced 1.744273
Ġas 4.2070374
Ġclose 0.34783658
Ġto 0.42887425
Ġthe 0.07587221
Ġend 2.21704
Ġas 1.9496628
Ġpossible 0.06663789
, 0.9776955
Ġand 1.472589
Ġas 4.2752056
Ġcentral 7.3138266
Ġto 1.9748516
Ġthe 0.062140454
Ġrod 1.7609886
Ġas 0.08727197
Ġpossible 0.038783167
, 1.5747807
Ġso 1.2376914
Ġthat 0.45328957
Ġthe 0.7429258
Ġmotion 5.669957
Ġwas 3.9829116
Ġperpendicular 5.41475
Ġto 0.036371287
Ġthe 0.09962301
Ġpickup 9.495514
's 1.9394296
Ġarm 5.3286524
. 0.57964206
ĠThe 1.1570989
Ġsignal 5.9200063
Ġfrom 1.5156697
Ġthe 0.094730616
Ġpickup 0.25439408
Ġwas 0.40114114
Ġamplified 2.911465
Ġand 1.7575567
Ġthen 3.3111286
Ġfed 1.8981205
Ġinto 0.85395
Ġthe 1.7128097
Ġy 7.274879
- 0.16976613
axis 1.2702185
Ġan 8.8107195
Ġoscill 1.8030473
oscope 1.6355807
. 0.9277461
ĠThe 0.97144413
Ġthree 6.2090707
Ġmaterials 8.517203
Ġbeing 4.194511
Ġinvestigated 2.882685
Ġwere 0.67073303
ĠAl 5.1493406
uminium 1.7626926
, 0.37120596
ĠCopper 3.453794
Ġand 0.4302691
ĠCor 7.368192
und 0.34995458
um 0.0024512205
Ġ( 3.6941109
Al 3.332033
ĠNote 15.298373
Ġthese 5.8006463
Ġare 1.6343269
Ġall 2.0201974
Ġisot 5.1924987
rop 0.013600297
ic 0.0070865736
Ġmaterials 0.8778308
. 3.351617
ĠTo 5.218298
Ġmeasure 3.9551327
Ġthe 0.538496
Ġfrequencies 5.1020184
Ġat 2.5273573
Ġwhich 0.03278593
Ġreson 2.5024972
ances 0.04591131
Ġoccurred 4.8838806
, 0.5628806
Ġthe 0.99443185
Ġoscill 4.460533
ator 2.15778
Ġsupply 7.9764423
Ġfrequency 3.8301346
Ġwas 0.3881741
Ġincreased 4.9560194
Ġuntil 3.227451
Ġthe 0.7140331
Ġoscill 2.4224613
oscope 3.891458
Ġconnected 7.6738324
Ġto 0.72093666
Ġthe 0.214594
Ġgram 9.726959
ophone 0.004245073
Ġpickup 0.7724484
Ġshowed 1.5143787
Ġa 0.7354947
Ġresonance 5.094496
Ġhad 8.919052
Ġbeen 1.8122952
Ġreached 5.54377
. 0.29996675
ĠReson 7.0087814
ances 0.85886294
Ġwere 1.1177353
Ġdetermined 5.919748
Ġby 0.81500995
Ġthe 1.7605841
Ġincrease 6.129699
Ġin 0.07225792
Ġamplitude 2.9300418
Ġof 0.5430201
Ġthe 0.11809853
Ġvibrations 6.694489
Ġfrom 3.507138
Ġthe 0.6917169
Ġnormal 7.155398
Ġvibrations 5.563282
. 2.1380303
ĠMeasure 6.059084
ments 0.18675277
Ġwere 0.49120346
Ġmade 0.7866875
Ġacross 6.128703
Ġthe 0.6595892
Ġrange 4.1214323
Ġof 0.56109285
Ġfrequencies 0.30589557
Ġfrom 1.533959
Ġ1 2.4696524
kHz 2.244003
Ġto 0.22520767
Ġ25 4.3553653
kHz 0.41037342
. 0.7100698
ĠThis 3.471839
Ġwas 1.2508848
Ġa 2.8907557
Ġlarge 4.0051737
Ġenough 2.53973
Ġrange 0.6419486
Ġto 0.6468659
Ġobtain 4.3986707
Ġaround 9.04643
Ġfour 5.8353357
Ġor 4.411301
Ġfive 0.025334584
Ġreson 1.4253284
ances 0.20752476
, 1.9795929
Ġwhich 2.1816874
Ġallows 6.578624
Ġthe 1.5465515
Ġplotting 9.088531
Ġof 0.06484148
Ġa 2.7616086
Ġreasonable 7.8671117
Ġgraph 4.5368967
. 1.4230024
ĠMe 8.107769
asuring 0.21529064
Ġat 4.742356
Ġhigher 4.7437353
Ġfrequencies 0.139602
Ġresulted 4.2660723
Ġin 0.0072466214
Ġthe 2.5981894
Ġamplitude 5.153604
Ġof 0.28995767
Ġthe 0.16271296
Ġreson 2.4769764
ances 0.096982375
Ġbeing 0.8522372
Ġtoo 3.448937
Ġlow 2.208147
Ġto 0.7289558
Ġdistinguish 4.211366
Ġfrom 2.8194737
Ġthe 0.6969888
Ġgeneral 6.630252
Ġoscill 2.9387062
ations 1.1680137
. 0.7281167
ĠErrors 9.422379
Ġin 0.9293102
Ġthe 0.66129255
Ġvalues 4.1697283
Ġmeasured 4.8862867
Ġfor 3.6119027
Ġfrequency 6.2028904
Ġwere 1.7844964
Ġestimated 5.9277763
Ġfrom 1.922607
Ġthe 0.39201722
Ġprecision 7.546935
Ġof 0.17822361
Ġthe 0.10339819
Ġread 8.537447
- 2.748749
out 0.060183883
Ġdisplay 7.5990863
Ġfor 5.27543
Ġthe 0.53287816
Ġoscill 1.075516
ator 4.261235
. 0.6147959
ĠThe 1.4604425
Ġamplitude 4.1573133
Ġwas 3.4314373
Ġalso 4.13244
Ġrecorded 3.1997373
Ġat 1.9265808
Ġeach 3.3217134
Ġreson 4.663379
ant 0.1011694
Ġfrequency 0.06636014
, 1.2750621
Ġto 2.3819733
Ġaid 4.984037
Ġin 0.58284146
Ġthe 1.4958984
Ġdetermination 1.5763867
Ġof 0.009788301
Ġproper 8.334919
Ġreson 3.0198078
ances 1.1270496
Ġfrom 5.1611743
Ġintermediate 10.572597
Ġones 4.598215
, 3.1255052
Ġduring 6.862369
Ġthe 0.752221
Ġdata 6.222282
Ġanalysis 2.325096
. 0.9234683
ĠThese 4.4232235
Ġmeasurements 2.6046114
Ġwere 0.36022073
Ġtaken 2.7685378
Ġfrom 2.334434
Ġthe 1.1449451
Ġy 3.1678913
- 0.03901474
axis 0.044066325
Ġon 3.8590655
Ġthe 0.45673776
Ġoscill 1.5966164
oscope 0.017256629
. 1.0864655
ĠErrors 6.977401
Ġwere 1.9708714
Ġnot 4.4115586
Ġapplicable 7.408972
, 3.33566
Ġas 1.4607759
Ġthese 3.4174254
Ġreadings 5.238507
Ġwere 0.46586388
Ġnot 3.3674543
Ġbeing 4.699583
Ġused 1.2754594
Ġin 1.5243629
Ġthe 0.29275045
Ġactual 4.9112525
Ġcalculations 3.6357443
. 0.3298945
ĠBoth 6.671229
Ġthe 0.9074345
Ġt 3.6003637
ors 0.005577933
ional 0.029413475
