The 2.5869806
Ġanalysis 9.090596
Ġof 0.9788183
Ġrecent 6.878478
Ġbanking 9.61857
Ġcrises 2.352613
Ġis 3.0200398
Ġone 4.0951486
Ġof 0.29436406
Ġthe 0.15139614
Ġmost 1.1025276
Ġinteresting 3.5773008
Ġfields 5.517717
Ġin 1.3122613
Ġinternational 4.1212134
Ġfinancial 2.2466664
Ġmacro 9.41717
econom 0.099544115
ics 0.008049876
Ġdue 6.7144012
Ġto 0.021067843
Ġtheir 3.543616
Ġnegative 8.773205
Ġeffects 2.300089
Ġand 4.0916905
Ġrec 9.153593
urrence 0.21939941
, 2.9678278
Ġand 2.6037197
Ġthe 1.5027229
Ġdifficulties 5.2550807
Ġinvolved 3.1056938
Ġin 0.17211245
Ġtheir 3.0390027
Ġresolution 2.3012154
. 0.22812377
ĠDiaz 15.070569
ĠAle 9.6645355
jandro 0.7942498
Ġ( 1.1478641
1985 5.8199167
), 1.7863725
Ġwhen 6.6273055
Ġreferring 5.231778
Ġto 0.015979664
Ġthe 0.5218036
Ġfinancial 3.8384144
Ġliberal 8.454853
isation 1.6708428
Ġprocesses 4.4412208
Ġstarted 7.39303
Ġin 0.5957504
Ġthe 0.4699165
Ġ1970 1.7601339
s 0.06582041
, 0.357914
Ġanticipated 8.148615
Ġmany 5.07715
Ġof 0.91156256
Ġthese 2.5053484
Ġevents 4.5917883
Ġwith 4.711122
Ġthe 1.4062434
Ġcatchy 11.997918
Ġtitle 2.4729495
Ġ" 2.1270933
Good 7.3182955
- 4.827593
bye 0.33456588
Ġfinancial 4.0392013
Ġrepression 6.6852627
, 3.412144
Ġhello 0.36016062
Ġfinancial 1.4203271
Ġcrash 10.8812685
." 2.3285687
ĠFurthermore 6.2248955
, 0.055155545
Ġduring 4.409874
Ġa 4.5222454
Ġnew 6.9005027
Ġwave 2.3266523
Ġof 0.035670143
Ġfinancial 1.6868324
Ġliberal 1.030113
isation 0.10227991
Ġinitiated 3.8294141
Ġin 0.78199166
Ġthe 0.29385146
Ġ1990 1.7991467
s 0.0103819
, 0.3375352
Ġbanking 4.9383516
Ġcrises 0.38344172
Ġhave 2.6203423
Ġshown 5.362188
Ġmore 4.8394117
Ġadverse 8.154064
Ġeffects 0.29634956
Ġwhen 6.35948
Ġcompared 0.5199657
Ġwith 1.353291
Ġthe 1.2646497
Ġ1980 3.6868277
s 0.021910138
ĠIn 12.952282
Ġthis 2.9077847
Ġcontext 2.4398515
Ġof 5.044567
Ġendemic 10.986546
Ġbanking 1.4131372
Ġcrises 0.25954643
Ġa 5.9862094
Ġnumber 2.6607556
Ġof 0.0021384147
Ġinteresting 4.223917
Ġquestions 2.6519475
Ġhave 2.2067714
Ġbeen 0.62425995
Ġraised 0.3874874
Ġamong 6.0911684
Ġpolicymakers 4.6330724
Ġand 1.3996457
Ġacademics 2.7889533
: 2.4753838
ĠWhat 2.0415313
Ġare 1.5920428
Ġthe 0.057901915
Ġcauses 2.0276203
Ġof 0.30824196
Ġsuch 4.105109
Ġcrises 0.7071386
? 0.67114824
ĠWhich 4.0744367
Ġpolicies 3.5540195
Ġshould 1.8536111
Ġbe 0.103507526
Ġpursued 3.096971
Ġwhen 3.4416614
Ġa 2.308105
Ġcrisis 2.0019758
Ġarises 2.2972991
? 0.21125628
ĠHow 3.2823286
Ġcan 1.4479215
Ġanother 9.444119
Ġcollapse 7.6431055
Ġbe 0.73770595
Ġprevented 1.0907706
Ġonce 7.0573
Ġthe 1.4916816
Ġcrisis 2.3074312
Ġvan 10.34137
ishes 0.006347117
? 0.11782932
ĠThe 2.4636948
ĠArgentine 10.798738
Ġ2001 9.901892
- 3.211951
2 4.2335324
Ġfinancial 3.2836494
Ġturmoil 6.593792
Ġrevital 13.6156025
ised 0.15897276
Ġthese 3.5871859
Ġquestions 0.5580486
, 1.8650516
Ġexposing 6.90779
Ġnew 3.2301772
Ġissues 3.9808693
Ġdue 7.2031465
Ġto 0.014442798
Ġthe 0.536529
Ġseverity 5.8923187
Ġand 2.4214785
Ġextension 8.880817
Ġof 0.02532297
Ġthe 0.45038068
Ġdistress 8.28564
, 2.8617718
Ġas 2.68093
Ġthe 3.2513316
ĠArgentine 2.2769325
Ġreal 5.8430586
ĠGDP 4.4210677
Ġplummeted 5.0803804
Ġaround 5.642086
Ġ11 4.496622
% 1.0159726
Ġin 0.9509381
Ġ2002 2.0550497
Ġwhile 4.3916607
Ġcredit 5.543158
Ġto 3.1834514
Ġthe 0.50152016
Ġprivate 1.6607261
Ġsector 0.09087908
Ġsuffered 5.383555
Ġa 1.3701917
Ġ39 7.187134
. 2.5898104
2 2.3290195
% 0.07066916
Ġreduction 3.760557
Ġin 1.6738358
Ġreal 2.0230236
Ġterms 0.61497015
Ġ( 2.6825984
Dec 7.939224
- 5.396981
2002 2.3728814
/ 4.3878326
Dec 2.2990928
- 0.19189376
2001 3.050655
). 0.857759
ĠNow 7.2602
Ġthe 2.9763706
ĠGDP 8.54707
Ġhas 2.601898
Ġrecovered 0.47902164
Ġat 5.688778
Ġan 2.1315153
Ġunexpectedly 7.8198624
Ġhigh 1.7867137
Ġrate 0.7529644
Ġof 1.2856028
Ġ8 3.3095756
% 1.622128
Ġin 0.84761924
Ġ2003 0.5225388
Ġwhile 3.8490586
Ġthe 0.7947667
Ġstock 4.4449534
Ġof 1.1905471
Ġcredit 2.5915
Ġto 0.86277366
Ġthe 0.12661806
Ġprivate 0.10812966
Ġsector 0.025692588
Ġfell 3.7350109
Ġ18 6.0186906
. 0.37612915
3 2.1575258
% 0.1818865
Ġ( 2.0776074
Dec 0.28533491
- 0.044973243
2003 1.775555
/ 0.061245844
Dec 0.13095379
- 0.00022683514
2002 0.16306715
) 0.71932334
Ġwithout 6.693581
Ġclear 6.0548244
Ġsignals 4.867879
Ġof 0.64218575
Ġrecovery 0.9789489
Ġin 1.9437457
Ġearly 8.451628
Ġ2004 2.181826
. 0.44058168
ĠThe 1.7462554
Ġobjective 8.355846
Ġof 0.19878463
Ġthis 0.33443564
Ġpaper 0.6957948
Ġis 0.097647674
Ġto 0.06893116
Ġdeal 7.21797
Ġwith 0.021221437
Ġthe 0.9651578
Ġaforementioned 6.926045
Ġquestions 1.4195303
Ġto 5.0462728
Ġshed 3.635545
Ġlight 0.44732177
Ġto 5.2578855
Ġthe 0.46202224
Ġanalysis 5.3936133
Ġof 0.14847752
Ġmodern 7.5039644
Ġbanking 0.14453252
Ġcrisis 4.3688226
, 2.0148716
Ġfocusing 3.3791761
Ġon 0.26715946
Ġthe 0.6086194
ĠArgentine 2.647933
Ġexperience 2.2531166
. 0.70937604
ĠWith 5.377376
Ġthis 1.9944698
Ġpurpose 4.4748063
ĠI 2.3893049
Ġwill 1.1797988
Ġfirst 2.701234
Ġsummar 5.589519
ise 0.0040338538
Ġa 4.486514
Ġnumber 1.413233
Ġof 0.0009211495
Ġstyl 10.631521
ised 0.6959884
Ġfacts 4.0568695
Ġon 3.9016705
Ġthe 0.60524005
Ġcauses 3.0373497
Ġand 1.8012778
Ġresolutions 7.8241735
Ġof 0.03093392
Ġrecent 2.3614905
Ġbanking 0.18925413
Ġcrises 0.038481023
. 1.5046009
ĠWith 5.5778923
Ġthe 1.4739704
Ġground 10.194504
Ġset 5.8913074
Ġfor 1.5528932
Ġthe 1.7403045
Ġanalysis 0.8557674
Ġof 0.40959045
Ġthe 1.2414985
ĠArgentine 1.0178969
Ġcase 3.123158
, 0.6068267
ĠI 0.6778862
Ġwill 0.16267607
Ġaddress 4.356106
Ġin 4.835597
Ġdetail 2.1850274
Ġthe 0.39051306
Ġcharacteristics 4.646457
Ġof 0.20269197
Ġthe 0.5698654
ĠArgentine 1.2106904
Ġbanking 0.52729696
Ġsystem 0.81756014
Ġ( 4.1212716
hen 8.384672
ce 0.00023285468
forth 0.05193277
ĠBS 6.6815367
) 1.2205971
Ġbefore 4.3936934
Ġand 5.5842447
Ġafter 0.08046011
Ġthe 0.5257258
Ġthreshold 13.958056
Ġgenerated 11.063455
Ġby 0.26271042
Ġthe 0.22963664
Ġdeval 7.8301077
uation 0.095308006
Ġin 2.2765207
ĠJanuary 3.3202202
Ġ2002 1.5851848
, 1.6816052
Ġincluding 5.551884
Ġa 2.310833
Ġbrief 1.6293119
Ġcomparison 3.9742935
Ġwith 0.7233374
Ġthe 0.8076596
Ġexperiences 5.1216674
Ġof 0.12009204
ĠMexico 5.335324
Ġand 0.71243954
ĠIndonesia 4.3033204
. 0.34209776
ĠThe 1.6427487
Ġfinal 5.7023005
Ġstep 3.3519628
Ġis 1.388702
Ġto 0.24022748
Ġoutline 4.660718
Ġa 2.2792456
Ġnumber 2.1223764
Ġof 0.0013282921
Ġpolicy 1.9797237
Ġrecommendations 2.0152469
Ġto 2.241845
Ġimprove 3.0215642
Ġthe 0.27327582
Ġsituation 2.9625227
Ġof 1.5515931
Ġthe 0.7308198
ĠArgentine 1.1144886
ĠBS 5.777504
. 1.2888215
ĠThere 6.3114824
Ġare 1.0748895
Ġtwo 1.7889051
Ġmain 1.4837776
Ġconclusions 3.1127295
Ġin 4.3220644
Ġthis 0.70018935
Ġpaper 0.35078835
. 0.81695276
ĠFirst 0.69638443
, 0.09018897
Ġthat 3.2195673
Ġin 3.8557036
Ġthe 1.1712546
ĠArgentine 1.8377621
Ġcase 0.9108353
Ġcredit 5.753942
Ġto 1.5233301
Ġthe 0.044879418
Ġprivate 0.15313686
Ġsector 0.028820194
Ġhas 1.2074648
Ġshown 4.6834803
Ġa 0.9151603
Ġnegative 3.3396933
Ġtrend 3.5139413
Ġeven 4.849044
Ġafter 1.5621074
Ġa 2.4494252
Ġpronounced 8.467427
Ġupward 7.862301
Ġtrend 0.994765
Ġin 0.62043643
Ġthe 0.903162
Ġreal 1.5884768
ĠGDP 1.0649797
, 1.9810511
Ġyielding 9.359289
Ġwhat 6.702939
ĠI 2.8042936
Ġhave 2.8923607
Ġcalled 1.0180192
Ġfinancial 6.1982474
Ġhy 10.329409
ste 0.3228762
res 0.00084049406
is 0.0005192418
. 0.705339
ĠSecond 1.424734
, 0.013827688
Ġthat 0.51998967
Ġfor 5.229901
ĠArgentina 3.9994094
Ġand 3.1933727
ĠMexico 1.170343
Ġthere 2.9720297
Ġis 0.86763585
Ġevidence 4.3253436
Ġthat 1.4091187
Ġthe 1.3864173
ĠGDP 7.829929
ĠGranger 12.026624
Ġcauses 6.8083854
Ġcredit 7.0253377
Ġto 0.80122447
Ġthe 0.3231651
Ġprivate 0.086424276
Ġsector 0.02984159
, 2.8977811
Ġalbeit 5.4180007
Ġthe 4.3808227
Ġrelative 5.8726993
Ġimportance 2.8193521
Ġof 0.15297717
Ġthe 0.91440713
Ġlatter 2.5126493
Ġdoes 5.508075
Ġnot 0.08476365
Ġreturn 7.239213
Ġto 0.26159614
Ġthe 1.1597136
Ġpre 3.3012178
- 0.055112906
c 3.2170813
risis 0.0011022913
Ġlevel 1.5753458
. 0.80001676
ĠThe 2.0324934
Ġremainder 6.300817
Ġof 0.025296802
Ġthe 0.7255051
Ġpaper 0.054965355
Ġis 1.2662922
Ġorganised 1.3457457
Ġas 0.7531663
Ġfollows 0.053875264
. 0.58807343
ĠSection 2.4082923
ĠI 2.0195732
Ġaddresses 4.7964516
Ġsome 3.9935
Ġstyl 1.5519563
ized 4.2389193
Ġfacts 0.060453776
Ġon 0.6887452
Ġthe 0.08183057
Ġcauses 0.16333681
Ġand 0.32079145
Ġresolution 2.1572976
Ġof 0.007299517
Ġrecent 0.74297214
Ġbanking 0.038454756
Ġcrises 0.016639424
. 0.5859023
ĠSection 1.0353413
ĠII 0.010594765
Ġintroduces 5.022282
Ġthe 0.5426727
ĠArgentine 1.3055384
Ġexperience 1.5449556
. 2.1029968
ĠSection 0.37940946
ĠIII 0.0053696716
Ġcompares 5.8348866
Ġthe 0.30805576
Ġcases 6.4870815
Ġof 0.27037266
ĠArgentina 2.9488313
, 2.9567
ĠIndonesia 3.7352815
Ġand 0.3086543
ĠMexico 0.05122784
. 0.4430576
ĠSection 0.326832
ĠIV 0.0038779688
Ġbriefly 5.277145
Ġassess 4.140785
es 0.005928095
Ġpolicy 3.9800985
Ġrecommendations 0.59869677
Ġfor 1.6670845
Ġthe 0.6889211
ĠArgentine 0.35121137
Ġcase 1.9611207
. 0.33279258
ĠSection 1.2121699
ĠV 0.0253432
Ġpresents 3.2618616
Ġconcluding 8.896866
Ġremarks 0.448254
. 0.36609173
ĠUp 10.673546
Ġto 0.5716247
Ġnow 0.63890725
ĠI 1.4357817
Ġhave 0.13306192
Ġaddressed 3.537479
Ġthe 1.390544
Ġvulnerabilities 12.088923
Ġand 2.2174597
Ġfactors 6.7141786
Ġthat 1.2117945
Ġtriggered 5.5061426
Ġrecent 2.5042672
Ġbanking 0.1803047
Ġcrises 0.031613156
Ġas 4.952146
Ġwell 0.6759262
Ġas 0.01307109
Ġthe 0.7705053
Ġmain 5.0549
Ġcharacteristics 3.6712825
Ġof 0.14892867
Ġthe 0.14010003
ĠArgentine 0.21743277
Ġbank 4.869948
Ġdistress 12.231426
. 0.65989244
ĠIn 2.3775363
Ġthe 1.4897097
Ġremainder 4.2093177
Ġof 0.013918464
Ġthe 0.73094755
Ġpaper 0.050862335
ĠI 0.3913151
Ġwill 0.40897226
Ġstress 6.8586116
Ġa 3.403811
Ġset 5.716854
Ġof 0.0020318537
Ġpolicy 0.8991041
Ġrecommendations 0.15603486
Ġbased 3.7939713
Ġon 0.037475813
Ġthe 0.91193885
Ġprevious 5.694155
Ġsections 4.0497236
' 6.4505677
Ġdiscussions 7.2322516
Ġand 2.9368877
Ġthe 2.28374
Ġanalysis 2.0444844
Ġstated 11.3284645
Ġin 0.4763245
ĠAc 11.70365
osta 0.46473378
ĠOr 8.27674
ma 6.888405
ec 3.7618062
hea 0.12626608
Ġand 1.6788536
ĠT 5.390738
od 3.837154
esc 5.930364
a 1.2181042
Ġ( 0.8287819
2002 1.792893
) 1.5445601
Ġand 1.0765644
ĠFan 8.93688
elli 1.9617434
Ġ( 1.1544166
2002 1.0495707
) 1.7326907
Ġto 2.5355284
Ġaddress 2.7748983
Ġtwo 5.505636
Ġmain 1.5049187
Ġissues 1.8281152
: 0.75440633
Ġ( 2.23475
i 0.9764221
) 0.0042504007
Ġhow 2.962551
Ġto 0.8974553
Ġimprove 1.9866015
Ġthe 0.15640132
Ġcurrent 4.3235736
Ġsituation 0.6775695
Ġof 1.099128
Ġthe 0.25284082
ĠArgentine 0.2556228
ĠBS 0.7037792
Ġand 1.5121055
Ġ( 0.22583956
ii 0.013590207
) 0.0017791266
Ġhow 0.9471108
Ġto 0.12543333
Ġavoid 3.1392126
Ġthe 2.1787047
Ġvulnerabilities 8.624797
Ġobserved 8.193989
Ġbefore 6.304532
Ġthe 0.57715094
ĠBS 9.48041
Ġcollapse 4.5243225
. 0.5050082
ĠThe 2.1826463
Ġlast 4.2549195
Ġtwo 1.8694824
Ġdecades 9.818931
Ġhave 0.5780003
Ġbeen 1.687793
Ġcharacter 2.7902358
ised 0.007074748
Ġby 0.029924067
Ġmore 6.2786083
Ġintegrated 9.039104
Ġfinancial 2.1358044
Ġmarkets 1.2516557
Ġbut 5.6602335
Ġalso 1.062022
Ġby 0.27771664
Ġthe 2.066462
Ġrec 6.9128656
urrence 0.044166803
Ġof 0.08126624
Ġdeep 6.828097
Ġbanking 1.8053894
Ġcrises 0.07681617
, 1.778701
Ġparticularly 3.4837317
Ġamong 5.456407
Ġdeveloping 2.8982825
Ġcountries 0.19468823
. 0.47505257
ĠIn 2.0709343
Ġsuch 4.786114
Ġa 2.0011497
Ġcontext 0.5078357
Ġthe 2.014598
Ġexistence 5.4580226
Ġof 0.08682635
Ġmacro 6.322154
economic 0.35214502
, 4.8549337
Ġinstitutional 1.8495901
Ġand 0.20898718
Ġbanking 5.366933
Ġvulnerabilities 5.450369
Ġhas 2.948873
Ġenhanced 7.1539574
Ġthe 0.28375915
Ġlikelihood 5.2487226
Ġof 0.19455175
Ġa 1.8994125
Ġbanking 1.0978993
Ġcollapse 3.2600927
, 2.103451
Ġan 5.4353957
Ġexternal 7.4636908
Ġfactor 2.428042
Ġoften 4.8990803
Ġbeing 5.806329
Ġthe 1.2933937
Ġelement 9.483014
Ġthat 2.181501
Ġtriggered 3.8615851
Ġthe 0.6331073
Ġcrisis 0.63387895
. 0.54933476
ĠWhich 8.74674
Ġpolicies 3.093296
Ġmust 5.036046
Ġbe 0.070430845
Ġimplemented 2.9126916
Ġonce 5.8528495
Ġthe 1.8852881
Ġcrisis 1.1843121
Ġarises 3.2875562
? 0.57132244
ĠIn 2.7297773
Ġthis 2.355531
Ġpaper 1.1681218
ĠI 0.3819879
Ġaddressed 8.277737
Ġsome 3.5534823
Ġinsights 9.08756
Ġas 5.8231554
Ġa 4.1701236
Ġrule 7.1571536
Ġof 1.3931572
Ġthumb 0.0299264
Ġto 2.5063767
Ġanswering 10.119609
Ġthe 1.4935406
Ġquestion 1.4247763
: 1.586314
Ġ( 5.7991076
i 0.15073256
) 0.026303224
Ġavoiding 12.498977
Ġthe 1.064721
Ġliquid 11.528
ation 0.17948759
Ġof 0.29832828
Ġbanks 2.9470572
Ġduring 4.410341
Ġthe 1.5668372
Ġcrisis 1.1069759
Ġsince 6.403155
Ġit 1.7864935
Ġmay 2.6952121
Ġworsen 5.237653
Ġpublic 6.6039915
Ġperception 7.0162067
Ġon 4.7713532
Ġthe 0.39412865
Ġgeneral 7.424347
Ġhealth 6.1688
Ġof 0.08039771
Ġthe 0.45369455
Ġbanking 0.6778426
Ġsystem 0.795298
, 1.6473498
Ġ( 1.0231202
ii 0.0051877513
) 0.0021490438
Ġavoiding 2.5792217
Ġpublic 6.365885
Ġintervention 3.6588368
Ġas 4.6731286
Ġmuch 3.5855021
Ġas 0.03067729
Ġpossible 0.027325425
Ġand 2.6512961
Ġ( 0.27894002
iii 0.024501255
) 0.0012282638
Ġenhancing 5.2564325
Ġthe 0.6199406
Ġregulatory 3.9369075
Ġand 2.4763377
Ġsuper 2.9272988
visory 0.000259442
Ġframeworks 3.9698799
. 1.895145
ĠAl 8.799943
beit 0.7241448
Ġpainful 8.25527
, 0.7759242
Ġthe 0.8044526
ĠArgentine 1.277695
Ġexperience 0.962973
Ġraised 7.8379545
Ġnew 2.870237
Ġissues 1.7296085
Ġabout 2.8779566
Ġthe 0.49106133
Ġlikelihood 6.4431853
Ġand 2.3383095
Ġeffects 4.545075
Ġof 0.016752215
Ġbanking 1.4438686
Ġcollapses 3.4261603
. 1.0180398
ĠOn 4.608613
Ġthe 0.32368374
Ġone 0.47813398
Ġhand 0.016838836
, 0.50834423
Ġan 5.0081115
Ġadequate 6.6430693
Ġregulatory 3.655497
Ġframework 0.4557464
Ġbeing 9.686987
Ġa 2.9508755
Ġnecessary 2.4216077
Ġcondition 1.2724005
Ġfor 0.38549533
Ġa 2.0664566
Ġsound 3.1191034
Ġbanking 0.47164458
Ġsystem 0.14013171
Ġseems 6.3513584
Ġnot 4.6021166
Ġto 0.50627714
Ġbe 0.5880044
Ġsufficient 3.390441
Ġfor 2.4565852
Ġavoiding 3.453847
Ġa 1.2035682
Ġcrisis 3.0029864
. 0.5373007
ĠOn 0.5570241
Ġthe 0.0010874952
Ġother 0.00698549
, 2.641927
Ġa 2.7319124
Ġproper 4.639659
Ġbanking 2.8243403
Ġsystem 0.40293592
Ġdepends 4.6721563
Ġgreatly 5.8228116
Ġon 0.070093356
Ġthe 1.0336515
Ġsound 5.2289577
ness 0.16590424
Ġof 0.10800542
Ġthe 0.3923542
Ġeconomy 4.428355
Ġas 2.881349
Ġa 1.2432672
Ġwhole 0.06297652
. 1.1102973
ĠI 4.207657
Ġalso 4.4494777
Ġaddressed 3.1653054
Ġan 5.1059647
Ġinteresting 2.8070128
Ġinsight 5.5698123
Ġto 3.1928556
Ġthe 0.9344407
Ġproblem 3.7936609
Ġof 0.34801468
Ġthe 1.6403164
ĠArgentine 2.697855
Ġbanking 1.4771904
Ġcrisis 1.9902729
Ġwhich 4.7841344
, 4.141012
Ġto 3.9177046
Ġmy 0.76706165
Ġknowledge 0.59756374
, 0.036899
Ġhas 0.9649503
Ġnot 0.30216107
Ġbeen 0.17058761
Ġaddressed 1.1442025
Ġin 1.244696
Ġthe 1.0441628
Ġliterature 0.15263668
Ġon 2.277222
Ġthe 1.3497256
Ġtopic 3.4581501
. 0.58573425
ĠAs 3.806859
Ġa 1.4154717
Ġconsequence 2.5997262
Ġof 1.0381365
Ġthe 0.56888014
ĠBS 7.7407594
Ġcollapse 1.3132814
Ġthe 2.5588188
Ġprivate 5.665066
Ġsector 0.30667406
Ġswapped 14.15701
Ġits 1.8281571
Ġsources 7.930543
Ġof 0.06369568
Ġfunding 1.6824993
Ġfrom 2.4381495
Ġformal 8.388752
Ġto 2.7256227
Ġinformal 0.18826915
, 4.699237
Ġgenerating 5.8339915
Ġwhat 3.984544
ĠI 0.90906036
Ġcalled 3.7256255
Ġfinancial 1.3074609
Ġhy 0.06389841
ste 0.0050144326
res 5.0856816e-05
is 8.531094e-05
: 4.03057
Ġonce 6.6246066
Ġthe 0.4142238
Ġeconomy 3.1838593
Ġrecovers 2.8795402
Ġthe 1.9239725
ĠGDP 7.8666525
Ġgrowth 4.2851787
Ġpath 6.3236938
, 3.33683
Ġcredit 2.7125678
Ġto 0.28012535
Ġthe 0.056356587
Ġprivate 0.053321354
Ġsector 0.01188563
Ġstill 6.843143
Ġdecreases 4.459794
. 1.6230465
ĠI 3.4350765
Ġargued 3.2873101
Ġthat 0.14009276
Ġsuch 3.7494426
Ġa 0.64272535
Ġsituation 1.9678041
Ġmight 4.4835696
Ġbe 1.3039167
Ġdriven 6.3927526
Ġby 0.11709858
Ġa 1.8950193
Ġprivate 7.203848
Ġsector 1.04046
Ġlack 5.4880323
Ġof 0.0070474367
Ġconfidence 0.89943767
Ġtowards 5.4546328
Ġthe 0.51502943
Ġbanking 2.9142656
Ġsystem 0.5697485
. 1.703904
ĠInterestingly 7.000258
, 0.23011684
ĠI 2.3830476
Ġalso 1.974302
Ġfound 2.1802006
Ġevidence 1.7228916
Ġin 3.61439
ĠIndonesia 5.627373
Ġand 1.4379297
ĠMexico 0.020861685
Ġof 2.1458194
Ġthe 1.7613838
Ġreduction 8.403193
Ġof 0.64474136
Ġthe 1.8489485
Ġratio 4.550507
Ġof 0.18122731
Ġcredit 1.3853528
Ġto 0.07690493
Ġthe 0.13008346
Ġprivate 0.07256416
Ġsector 0.03721811
Ġ/ 12.277097
ĠGDP 0.82129526
Ġeven 4.9397817
Ġafter 0.79512936
Ġmany 8.707227
Ġperiods 7.645954
Ġof 0.029300964
Ġsustained 5.890051
Ġeconomic 2.4448693
Ġgrowth 0.18244523
. 0.6273095
ĠHowever 3.5351164
, 0.05542629
Ġconsidering 7.330687
Ġthe 0.49481562
ĠGranger 13.275455
Ġcaus 1.3014064
ality 0.021724699
Ġtest 5.2199397
ĠI 2.0251248
Ġfound 1.1467667
Ġthat 1.025945
Ġthe 0.78256154
ĠGDP 5.1222363
ĠGranger 2.9700992
Ġcauses 1.5254713
Ġcredit 1.1554273
Ġto 0.06757745
Ġthe 0.050250288
Ġprivate 0.011808848
Ġsector 0.012509812
Ġin 3.2841406
Ġthe 1.7203425
Ġcases 4.277299
Ġof 0.16942257
ĠArgentina 2.7757854
Ġand 0.4857835
ĠMexico 0.5956804
, 1.3045651
Ġwhich 3.8708797
Ġmay 2.7625167
Ġsuggest 4.1913495
Ġfurther 6.7847953
Ġincrements 11.897169
Ġin 0.79835594
Ġthis 4.0309305
Ġaggregate 8.5945015
. 1.5671593
ĠA 4.7296796
Ġset 4.9947586
Ġof 0.0025738385
Ġpolicies 3.2874682
Ġwhich 4.4857874
Ġmay 2.9177108
Ġhelp 1.2823161
Ġin 2.5332532
Ġboth 6.5740805
Ġrestoring 7.72725
Ġthe 0.80050695
Ġcurrent 6.1306458
Ġsituation 0.5910123
Ġof 0.98476684
Ġthe 0.06699799
ĠArgentine 0.5095284
Ġbanking 2.2629762
Ġsystem 0.1141285
Ġand 0.6178207
Ġavoiding 0.7975785
Ġa 1.7721719
Ġfuture 2.932509
Ġcrisis 2.1618063
Ġwas 4.209959
Ġdiscussed 3.4424438
, 3.5450695
Ġsummar 7.6004825
ised 0.42721832
Ġthus 9.240099
: 0.7663211
Ġ( 0.67790216
i 0.07197119
) 0.0045669256
Ġencouraging 6.0458207
Ġthe 1.0681672
Ġstability 6.7147617
Ġof 0.105438076
Ġthe 0.25729266
Ġmacro 4.8288426
economic 0.22874905
Ġand 2.2640932
Ġinstitutional 1.1010997
Ġframeworks 2.0054996
Ġ( 3.2416515
ii 6.6877623
) 0.015943628
Ġpromoting 3.7252717
Ġan 3.958486
Ġadequate 3.149458
Ġregulatory 0.33316037
Ġand 2.0034862
Ġsuper 0.3693042
visory 0.0003218097
Ġsystem 2.2697117
Ġaccording 8.5632715
Ġto 0.010627535
Ġthe 0.84267724
Ġnew 4.4660516
Ġeconomic 3.626706
Ġenvironment 3.1277268
, 1.0851597
Ġ( 0.29189262
iii 0.04870191
) 0.0011012156
Ġenhancing 3.2434788
Ġbanking 4.652532
Ġsystem 4.836331
Ġtransparency 3.2349048
, 1.509268
Ġproviding 7.7472777
Ġall 6.7715025
Ġrelevant 3.069372
Ġinformation 1.0067149
Ġto 1.1885641
Ġtheir 7.6194506
Ġcustomers 1.7467918
, 0.7731044
Ġ( 0.46728674
iii 7.2257514
) 0.03175501
Ġavoiding 5.467849
Ġthe 1.5762161
Ġdollar 11.536653
ization 0.9091171
Ġof 0.09639902
Ġthe 0.9578827
Ġbanking 0.31856167
Ġsystem 0.57235837
Ġand 1.8242661
Ġ( 0.6194899
iv 0.03100093
) 0.0015371453
Ġreducing 3.384522
Ġloans 8.688584
Ġto 0.64044887
Ġthe 0.67766064
Ġpublic 2.5455766
Ġsector 0.42162165
Ġas 3.717795
Ġmuch 0.45527974
Ġas 0.0034513029
Ġpossible 0.013595948
. 0.4112085
ĠVal 10.201137
uable 1.0521652
Ġextensions 8.419148
Ġof 0.9427232
Ġthe 0.8823381
Ġpaper 4.8857226
Ġare 1.0115367
Ġpostponed 11.012747
Ġfor 2.1199358
Ġfurther 4.455359
Ġresearch 2.1826196
. 0.70336765
ĠIt 4.70573
Ġseems 3.1357331
Ġinteresting 5.8299384
Ġto 0.38276002
Ġexplore 3.7590945
Ġin 3.5074282
Ġdetail 1.9874799
Ġthe 0.5222276
Ġaforementioned 8.37287
Ġhypothesis 8.739308
Ġof 2.6559324
Ġfinancial 1.1547486
Ġhy 0.13126957
ste 0.006842169
res 4.0246297e-05
is 0.00016912498
Ġin 1.7591069
Ġthe 0.60860395
Ġaftermath 5.518412
Ġof 0.0043846737
Ġa 1.4977434
Ġbanking 0.56670374
Ġcrisis 0.34544367
. 0.73249364
ĠA 3.9406893
Ġfirst 5.1578465
Ġstep 1.4062058
Ġin 2.2431479
Ġthis 0.60310274
Ġdirection 0.3215079
Ġshould 4.4161997
Ġbe 0.069199845
Ġto 0.35263562
Ġextend 4.8805537
Ġthe 0.42879072
Ġinternational 8.348512
Ġevidence 4.4775467
Ġas 5.568603
Ġwell 1.2629952
Ġas 0.07145405
Ġthe 0.862561
