The 2.5869806
Ġanalysis 9.090596
Ġof 0.9788183
Ġrecent 6.878478
Ġbanking 9.61857
Ġcrises 2.352613
Ġis 3.0200398
Ġone 4.0951486
Ġof 0.29436406
Ġthe 0.15139614
Ġmost 1.1025276
Ġinteresting 3.5773008
Ġfields 5.517717
Ġin 1.3122613
Ġinternational 4.1212134
Ġfinancial 2.2466664
Ġmacro 9.41717
econom 0.099544115
ics 0.008049876
Ġdue 6.7144012
Ġto 0.021067843
Ġtheir 3.543616
Ġnegative 8.773205
Ġeffects 2.300089
Ġand 4.0916905
Ġrec 9.153593
urrence 0.21939941
, 2.9678278
Ġand 2.6037197
Ġthe 1.5027229
Ġdifficulties 5.2550807
Ġinvolved 3.1056938
Ġin 0.17211245
Ġtheir 3.0390027
Ġresolution 2.3012154
. 0.22812377
ĠDiaz 15.070569
ĠAle 9.6645355
jandro 0.7942498
Ġ( 1.1478641
1985 5.8199167
), 1.7863725
Ġwhen 6.6273055
Ġreferring 5.231778
Ġto 0.015979664
Ġthe 0.5218036
Ġfinancial 3.8384144
Ġliberal 8.454853
isation 1.6708428
Ġprocesses 4.4412208
Ġstarted 7.39303
Ġin 0.5957504
Ġthe 0.4699165
Ġ1970 1.7601339
s 0.06582041
, 0.357914
Ġanticipated 8.148615
Ġmany 5.07715
Ġof 0.91156256
Ġthese 2.5053484
Ġevents 4.5917883
Ġwith 4.711122
Ġthe 1.4062434
Ġcatchy 11.997918
Ġtitle 2.4729495
Ġ" 2.1270933
Good 7.3182955
- 4.827593
bye 0.33456588
Ġfinancial 4.0392013
Ġrepression 6.6852627
, 3.412144
Ġhello 0.36016062
Ġfinancial 1.4203271
Ġcrash 10.8812685
." 2.3285687
ĠFurthermore 6.2248955
, 0.055155545
Ġduring 4.409874
Ġa 4.5222454
Ġnew 6.9005027
Ġwave 2.3266523
Ġof 0.035670143
Ġfinancial 1.6868324
Ġliberal 1.030113
isation 0.10227991
Ġinitiated 3.8294141
Ġin 0.78199166
Ġthe 0.29385146
Ġ1990 1.7991467
s 0.0103819
, 0.3375352
Ġbanking 4.9383516
Ġcrises 0.38344172
Ġhave 2.6203423
Ġshown 5.362188
Ġmore 4.8394117
Ġadverse 8.154064
Ġeffects 0.29634956
Ġwhen 6.35948
Ġcompared 0.5199657
Ġwith 1.353291
Ġthe 1.2646497
Ġ1980 3.6868277
s 0.021910138
Ġ1 11.334201
. 0.7465963
ĠIn 2.66192
Ġthis 2.0390625
Ġcontext 1.5717266
Ġof 5.4619155
Ġendemic 11.0476055
Ġbanking 1.5828114
Ġcrises 0.2843033
Ġa 6.1877046
Ġnumber 2.7627985
Ġof 0.0022820197
Ġinteresting 4.363939
Ġquestions 2.511457
Ġhave 2.0563552
Ġbeen 0.64351255
Ġraised 0.36993033
Ġamong 6.2479744
Ġpolicymakers 4.5312743
Ġand 1.4144408
Ġacademics 2.8038363
: 2.2809403
ĠWhat 2.2467215
Ġare 1.622034
Ġthe 0.060410466
Ġcauses 2.0047064
Ġof 0.32828698
Ġsuch 4.00019
Ġcrises 0.7087254
? 0.79958576
ĠWhich 4.113808
Ġpolicies 3.5713725
Ġshould 1.8847213
Ġbe 0.106300995
Ġpursued 3.159555
Ġwhen 3.5050933
Ġa 2.3527963
Ġcrisis 2.063572
Ġarises 2.24131
? 0.28224236
ĠHow 3.4275122
Ġcan 1.4867734
Ġanother 9.435217
Ġcollapse 7.7006936
Ġbe 0.7394828
Ġprevented 1.083666
Ġonce 7.046643
Ġthe 1.4383866
Ġcrisis 2.2734554
Ġvan 10.209128
ishes 0.0059799617
? 0.14724065
ĠThe 2.5452604
ĠArgentine 10.978733
Ġ2001 9.761366
- 3.439227
2 4.0385346
Ġfinancial 3.2615337
Ġturmoil 6.610624
Ġrevital 13.60859
ised 0.17548245
Ġthese 3.2894962
Ġquestions 0.53900534
, 1.8815542
Ġexposing 6.8719807
Ġnew 3.1392558
Ġissues 3.9440942
Ġdue 7.1490645
Ġto 0.014708967
Ġthe 0.5384098
Ġseverity 5.8897724
Ġand 2.407821
Ġextension 8.876557
Ġof 0.027448127
Ġthe 0.46043566
Ġdistress 8.256666
, 3.007061
Ġas 2.738198
Ġthe 3.2153974
ĠArgentine 2.287609
Ġreal 5.8679743
ĠGDP 4.3995414
Ġplummeted 5.048969
Ġaround 5.8249116
Ġ11 4.4149365
% 0.9636319
Ġin 0.97415835
Ġ2002 2.046729
Ġwhile 4.8946753
Ġcredit 5.5790515
Ġto 3.2357087
Ġthe 0.47366232
Ġprivate 1.7478116
Ġsector 0.09186777
Ġsuffered 5.4021306
Ġa 1.376054
Ġ39 7.1279664
. 2.4458444
2 2.2951944
% 0.07348098
Ġreduction 3.6763132
Ġin 1.7822487
Ġreal 2.0563612
Ġterms 0.7003469
Ġ( 2.6168175
Dec 7.9513044
- 5.043916
2002 2.3900907
/ 4.244107
Dec 2.2218509
- 0.18296285
2001 2.9900675
). 0.8804234
ĠNow 7.1891265
Ġthe 3.034933
ĠGDP 8.574315
Ġhas 2.5868206
Ġrecovered 0.50822836
Ġat 5.748714
Ġan 2.0972784
Ġunexpectedly 7.8334575
Ġhigh 1.7110852
Ġrate 0.7633189
Ġof 1.3245658
Ġ8 3.3323097
% 1.5833564
Ġin 0.8469175
Ġ2003 0.50797415
Ġwhile 3.8335466
Ġthe 0.77399105
Ġstock 4.37619
Ġof 1.0046469
Ġcredit 2.5346665
Ġto 0.8396411
Ġthe 0.12535994
Ġprivate 0.10805508
Ġsector 0.02539303
Ġfell 3.7334707
Ġ18 6.019615
. 0.38318592
3 2.1596003
% 0.1923814
Ġ( 2.0314534
Dec 0.2743045
- 0.04205861
2003 1.6395004
/ 0.06455577
Dec 0.12622726
- 0.0002433488
2002 0.16532372
) 0.72069144
Ġwithout 6.688266
Ġclear 6.155257
Ġsignals 4.8484063
Ġof 0.64530486
Ġrecovery 0.9555311
Ġin 2.0848072
Ġearly 8.419721
Ġ2004 2.196131
. 0.4351545
ĠThe 1.7737217
Ġobjective 8.302537
Ġof 0.19433317
Ġthis 0.32953653
Ġpaper 0.66551405
Ġis 0.10254239
Ġto 0.06795914
Ġdeal 7.2790303
Ġwith 0.020228501
Ġthe 0.9922732
Ġaforementioned 6.8953295
Ġquestions 1.3936448
Ġto 5.098699
Ġshed 3.6332657
Ġlight 0.4351889
Ġto 5.2097187
Ġthe 0.45649177
Ġanalysis 5.2970285
Ġof 0.14924271
Ġmodern 7.4849854
Ġbanking 0.14211126
Ġcrisis 4.3540688
, 2.0549464
Ġfocusing 3.2604246
Ġon 0.25093368
Ġthe 0.6030436
ĠArgentine 2.6683424
Ġexperience 2.1840768
. 0.68545014
ĠWith 5.4058213
Ġthis 1.9026203
Ġpurpose 4.439597
ĠI 2.2930186
Ġwill 1.1507998
Ġfirst 2.668096
Ġsummar 5.5560474
ise 0.0039696395
Ġa 4.4984207
Ġnumber 1.5244129
Ġof 0.0009142298
Ġstyl 10.651094
ised 0.5470037
Ġfacts 4.1033664
Ġon 3.8230236
Ġthe 0.5958834
Ġcauses 3.1905732
Ġand 1.7453525
Ġresolutions 7.806787
Ġof 0.030855114
Ġrecent 2.2905476
Ġbanking 0.19123495
Ġcrises 0.037643276
. 1.5116459
ĠWith 5.595286
Ġthe 1.474962
Ġground 10.235207
Ġset 5.9328218
Ġfor 1.5740983
Ġthe 1.6822478
Ġanalysis 0.8404738
Ġof 0.3980583
Ġthe 1.2209959
ĠArgentine 1.0276957
Ġcase 3.266088
, 0.6585116
ĠI 0.65761924
Ġwill 0.16109426
Ġaddress 4.362253
Ġin 4.797788
Ġdetail 2.180188
Ġthe 0.38225725
Ġcharacteristics 4.636321
Ġof 0.2048934
Ġthe 0.5439023
ĠArgentine 1.2085414
Ġbanking 0.5705653
Ġsystem 0.8502808
Ġ( 4.0215855
hen 8.382937
ce 0.00030702315
forth 0.04513754
ĠBS 6.5696554
) 1.301564
Ġbefore 4.3218565
Ġand 5.537284
Ġafter 0.08031575
Ġthe 0.5399547
Ġthreshold 13.869504
Ġgenerated 11.200685
Ġby 0.26725227
Ġthe 0.22687396
Ġdeval 7.868426
uation 0.09509115
Ġin 2.2826989
ĠJanuary 3.2502441
Ġ2002 1.5369033
, 1.7221746
Ġincluding 5.576414
Ġa 2.3380523
Ġbrief 1.6209847
Ġcomparison 3.9468338
Ġwith 0.6873498
Ġthe 0.799193
Ġexperiences 5.124132
Ġof 0.121939406
ĠMexico 5.346592
Ġand 0.7216448
ĠIndonesia 4.2999835
. 0.3922322
ĠThe 1.6868762
Ġfinal 5.6598473
Ġstep 3.3261573
Ġis 1.4136496
Ġto 0.2438129
Ġoutline 4.692654
Ġa 2.2699685
Ġnumber 2.2009394
Ġof 0.0012939731
Ġpolicy 2.0694623
Ġrecommendations 1.942189
Ġto 2.2270052
Ġimprove 3.0030386
Ġthe 0.27094725
Ġsituation 2.9712472
Ġof 1.5347158
Ġthe 0.7121289
ĠArgentine 1.1627933
ĠBS 5.8195114
. 1.2966977
ĠThere 6.4372115
Ġare 1.064187
Ġtwo 1.814526
Ġmain 1.4889344
Ġconclusions 3.062727
Ġin 4.316204
Ġthis 0.69293195
Ġpaper 0.33899269
. 0.794561
ĠFirst 0.729358
, 0.08628236
Ġthat 3.2754903
Ġin 3.8322413
Ġthe 1.152206
ĠArgentine 1.8157679
Ġcase 0.89324325
Ġcredit 5.8566227
Ġto 1.5094173
Ġthe 0.044697646
Ġprivate 0.15723196
Ġsector 0.027835812
Ġhas 1.1943393
Ġshown 4.6785555
Ġa 0.90581435
Ġnegative 3.3035374
Ġtrend 3.497709
Ġeven 4.889624
Ġafter 1.5725638
Ġa 2.446891
Ġpronounced 8.429907
Ġupward 7.882595
Ġtrend 0.92848444
Ġin 0.619051
Ġthe 0.86768556
Ġreal 1.5764092
ĠGDP 1.1281084
, 1.9647378
Ġyielding 9.116228
Ġwhat 6.787452
ĠI 2.8030949
Ġhave 2.961716
Ġcalled 1.0374951
Ġfinancial 6.1552243
Ġhy 10.318941
ste 0.3358721
res 0.0007077107
is 0.00048263065
. 0.7269526
ĠSecond 1.3066165
, 0.013537038
Ġthat 0.5292648
Ġfor 5.193012
ĠArgentina 4.0234303
Ġand 3.1693242
ĠMexico 1.0906237
Ġthere 2.970218
Ġis 0.85812455
Ġevidence 4.3816466
Ġthat 1.4286774
Ġthe 1.3731732
ĠGDP 7.9192834
ĠGranger 12.121696
Ġcauses 6.5861297
Ġcredit 7.6508627
Ġto 0.7501633
Ġthe 0.31222996
Ġprivate 0.086724944
Ġsector 0.02875014
, 2.9556541
Ġalbeit 5.3837605
Ġthe 4.373764
Ġrelative 5.814605
Ġimportance 2.8858418
Ġof 0.16570577
Ġthe 0.9201126
Ġlatter 2.4870555
Ġdoes 5.5606885
Ġnot 0.08627319
Ġreturn 7.324214
Ġto 0.28415272
Ġthe 1.1615126
Ġpre 3.460354
- 0.058479343
c 3.190126
risis 0.0011245485
Ġlevel 1.5961654
. 0.79533106
ĠThe 2.0261633
Ġremainder 6.362312
Ġof 0.026580343
Ġthe 0.72824186
Ġpaper 0.05435691
Ġis 1.2366886
Ġorganised 1.3255036
Ġas 0.7122085
Ġfollows 0.05639423
. 0.535647
ĠSection 2.4022448
ĠI 2.0417697
Ġaddresses 4.7520127
Ġsome 3.9824367
Ġstyl 1.4008859
ized 4.345998
Ġfacts 0.05974985
Ġon 0.7046124
Ġthe 0.08129307
Ġcauses 0.16795082
Ġand 0.32458287
Ġresolution 2.1613736
Ġof 0.007280605
Ġrecent 0.730245
Ġbanking 0.038490005
Ġcrises 0.016744578
. 0.6057213
ĠSection 1.0054951
ĠII 0.010004528
Ġintroduces 5.010154
Ġthe 0.5388259
ĠArgentine 1.4157352
Ġexperience 1.5867932
. 2.1412601
ĠSection 0.3831548
ĠIII 0.00494117
Ġcompares 5.8473887
Ġthe 0.30517673
Ġcases 6.5437837
Ġof 0.25227153
ĠArgentina 2.9840577
, 2.8492851
ĠIndonesia 4.0343456
Ġand 0.33144447
ĠMexico 0.04541906
. 0.48097056
ĠSection 0.32086122
ĠIV 0.0036451705
Ġbriefly 5.2749143
Ġassess 4.200417
es 0.00618589
Ġpolicy 4.6327844
Ġrecommendations 0.7850469
Ġfor 1.650283
Ġthe 0.66833395
ĠArgentine 0.39070362
Ġcase 2.0230272
. 0.3648563
ĠSection 1.2631066
ĠV 0.028579928
Ġpresents 3.3086743
Ġconcluding 8.757608
Ġremarks 0.44510287
. 0.35336536
ĠUp 10.301741
Ġto 0.52312315
Ġnow 0.6094113
ĠI 1.4337273
Ġhave 0.14474852
Ġaddressed 3.5200162
Ġthe 1.3968009
Ġvulnerabilities 12.193534
Ġand 2.2625473
Ġfactors 6.735466
Ġthat 1.2347732
Ġtriggered 5.3674393
Ġrecent 2.4546423
Ġbanking 0.17334802
Ġcrises 0.028632676
Ġas 4.9677496
Ġwell 0.7568494
Ġas 0.012338718
Ġthe 0.75438505
Ġmain 5.1288223
Ġcharacteristics 3.5441422
Ġof 0.14701265
Ġthe 0.14428826
ĠArgentine 0.22114734
Ġbank 4.8353376
Ġdistress 12.266784
. 0.6362782
ĠIn 2.3334246
Ġthe 1.5160356
Ġremainder 4.4814396
Ġof 0.014039895
Ġthe 0.78202754
Ġpaper 0.046204094
ĠI 0.37842834
Ġwill 0.41862023
Ġstress 6.8155704
Ġa 3.3855512
Ġset 5.8023543
Ġof 0.0020209248
Ġpolicy 0.9562835
Ġrecommendations 0.16123663
Ġbased 3.8921418
Ġon 0.036476687
Ġthe 0.91116965
Ġprevious 5.656825
Ġsections 4.1126156
' 6.264256
Ġdiscussions 7.199219
Ġand 2.900525
Ġthe 2.3273003
Ġanalysis 2.0246303
Ġstated 11.367497
Ġin 0.46889326
ĠAc 11.669754
osta 0.47736475
ĠOr 8.264996
ma 6.968316
ec 3.1837516
hea 0.093132764
Ġand 1.657396
ĠT 5.401104
od 3.8438807
esc 6.0867515
a 1.3606474
Ġ( 0.87652534
2002 1.8352062
) 1.4783249
Ġand 1.0955377
ĠFan 8.95394
elli 2.0696113
Ġ( 1.1599349
2002 1.0548464
) 1.7480971
Ġto 2.7002358
Ġaddress 2.8420668
Ġtwo 5.5230474
Ġmain 1.4986324
Ġissues 1.8158039
: 0.77906245
Ġ( 2.2983243
i 0.89640623
) 0.0038578026
Ġhow 3.0312958
Ġto 0.8961917
Ġimprove 1.9451159
Ġthe 0.1645954
Ġcurrent 4.3386836
Ġsituation 0.6541347
Ġof 0.9781466
Ġthe 0.24476062
ĠArgentine 0.25249228
ĠBS 0.5851524
Ġand 1.5133106
Ġ( 0.22542697
ii 0.013770939
) 0.0017942343
Ġhow 0.90202683
Ġto 0.11905356
Ġavoid 3.181295
Ġthe 2.1497517
Ġvulnerabilities 8.641193
Ġobserved 8.075774
Ġbefore 6.2668614
Ġthe 0.5539758
ĠBS 9.373754
Ġcollapse 4.431728
. 0.49470097
ĠThe 2.1904004
Ġlast 4.4787784
Ġtwo 1.8397733
Ġdecades 9.855137
Ġhave 0.5964632
Ġbeen 1.68451
Ġcharacter 2.7973742
ised 0.0074432665
Ġby 0.029747821
Ġmore 6.22706
Ġintegrated 8.994871
Ġfinancial 2.1146965
Ġmarkets 1.2319623
Ġbut 5.6248226
Ġalso 1.054062
Ġby 0.28532293
Ġthe 2.057259
Ġrec 6.919984
urrence 0.044375397
Ġof 0.084129676
Ġdeep 6.848884
Ġbanking 1.8283917
Ġcrises 0.07392864
, 1.8294953
Ġparticularly 3.4957387
Ġamong 5.393407
Ġdeveloping 2.8771448
Ġcountries 0.19140637
. 0.53190774
ĠIn 1.9936471
Ġsuch 4.8669415
Ġa 2.024745
Ġcontext 0.5435857
Ġthe 2.0104222
Ġexistence 5.437999
Ġof 0.08596071
Ġmacro 6.3108597
economic 0.32343554
, 4.882885
Ġinstitutional 1.789476
Ġand 0.21078329
Ġbanking 5.4287376
Ġvulnerabilities 5.5530457
Ġhas 2.9415276
Ġenhanced 7.245638
Ġthe 0.2909702
Ġlikelihood 5.262646
Ġof 0.19709598
Ġa 1.9166899
Ġbanking 1.0860964
Ġcollapse 3.3461804
, 2.172103
Ġan 5.4358873
Ġexternal 7.3989363
Ġfactor 2.4188247
Ġoften 4.9045587
Ġbeing 5.867942
Ġthe 1.3014812
Ġelement 9.42028
Ġthat 2.2055275
Ġtriggered 3.9824147
Ġthe 0.6257084
Ġcrisis 0.6071923
. 0.5372256
ĠWhich 8.850223
Ġpolicies 3.2329924
Ġmust 4.990428
Ġbe 0.07287388
Ġimplemented 2.9188943
Ġonce 5.9125643
Ġthe 1.8867834
Ġcrisis 1.2054583
Ġarises 3.2728271
? 0.6483828
ĠIn 2.7005591
Ġthis 2.3193629
Ġpaper 1.145496
ĠI 0.36285695
Ġaddressed 8.331998
Ġsome 3.5655475
Ġinsights 9.087943
Ġas 5.744773
Ġa 4.262282
Ġrule 7.11546
Ġof 1.1912612
Ġthumb 0.02223175
Ġto 2.4803252
Ġanswering 10.214316
Ġthe 1.5311178
Ġquestion 1.4408928
: 1.5631659
Ġ( 5.8002033
i 0.15674525
) 0.026654659
Ġavoiding 12.46694
Ġthe 1.0366586
Ġliquid 11.53729
ation 0.1802334
Ġof 0.31913343
Ġbanks 3.001354
Ġduring 4.467084
Ġthe 1.5453566
Ġcrisis 1.1270261
Ġsince 6.376592
Ġit 1.7957559
Ġmay 2.6682677
Ġworsen 5.2458515
Ġpublic 6.575677
Ġperception 7.091569
Ġon 4.6507626
Ġthe 0.39881366
Ġgeneral 7.404061
Ġhealth 6.0412774
Ġof 0.08362939
Ġthe 0.4518168
Ġbanking 0.6957452
Ġsystem 0.8237385
, 1.7169528
Ġ( 1.0246397
ii 0.0058187945
) 0.0022691751
Ġavoiding 2.5053585
Ġpublic 6.403035
Ġintervention 3.724278
Ġas 4.6969366
Ġmuch 3.6241605
Ġas 0.032627903
Ġpossible 0.027802903
Ġand 2.597047
Ġ( 0.2602881
iii 0.024822356
) 0.0012420497
Ġenhancing 5.30075
Ġthe 0.6015874
Ġregulatory 3.9499354
Ġand 2.485464
Ġsuper 2.9197958
visory 0.0002643333
Ġframeworks 3.938001
. 1.8573394
ĠAl 8.744819
beit 0.750076
Ġpainful 8.240061
, 0.8022404
Ġthe 0.8355519
ĠArgentine 1.3382599
Ġexperience 0.9047755
Ġraised 7.860488
Ġnew 2.8695436
Ġissues 1.7058185
Ġabout 2.8033726
Ġthe 0.4826658
Ġlikelihood 6.48012
Ġand 2.328444
Ġeffects 4.5712337
Ġof 0.01661367
Ġbanking 1.4773701
Ġcollapses 3.4042945
. 1.0458875
ĠOn 4.5524225
Ġthe 0.31672063
Ġone 0.47374943
Ġhand 0.016660456
, 0.5503894
Ġan 5.0008993
Ġadequate 6.6418123
Ġregulatory 3.6418152
Ġframework 0.47006178
Ġbeing 9.679562
Ġa 2.9547443
Ġnecessary 2.395587
Ġcondition 1.3012955
Ġfor 0.37505928
Ġa 2.068432
Ġsound 3.0840523
Ġbanking 0.49064332
Ġsystem 0.13383053
Ġseems 6.413642
Ġnot 4.6252246
Ġto 0.52953005
Ġbe 0.5626718
Ġsufficient 3.3723006
Ġfor 2.418516
Ġavoiding 3.491511
Ġa 1.2161378
Ġcrisis 3.023828
. 0.54260546
ĠOn 0.515277
Ġthe 0.001074188
Ġother 0.0069273906
, 2.6087437
Ġa 2.714204
Ġproper 4.647498
Ġbanking 2.879317
Ġsystem 0.4178014
Ġdepends 4.663964
Ġgreatly 5.868721
Ġon 0.06995553
Ġthe 1.0196443
Ġsound 5.22331
ness 0.17889236
Ġof 0.10678171
Ġthe 0.38893116
Ġeconomy 4.4169097
Ġas 2.9254746
Ġa 1.2220166
Ġwhole 0.062250253
. 1.0963665
ĠI 4.2062044
Ġalso 4.506707
Ġaddressed 3.264755
Ġan 5.056261
Ġinteresting 2.7485683
Ġinsight 5.2934566
Ġto 3.1897407
Ġthe 0.9426044
Ġproblem 3.7915616
Ġof 0.35806534
Ġthe 1.6180737
ĠArgentine 2.6924345
Ġbanking 1.5016913
Ġcrisis 1.9556649
Ġwhich 4.770332
, 4.11446
Ġto 3.9271216
Ġmy 0.77071345
Ġknowledge 0.59919137
, 0.035488743
Ġhas 0.9347315
Ġnot 0.28462112
Ġbeen 0.1682388
Ġaddressed 1.1720018
Ġin 1.2440884
Ġthe 1.0326041
Ġliterature 0.14606313
Ġon 2.3937025
Ġthe 1.340413
Ġtopic 3.4855177
. 0.58057034
ĠAs 3.791194
Ġa 1.4267004
Ġconsequence 2.7005587
Ġof 1.0540712
Ġthe 0.5704171
ĠBS 7.6632
Ġcollapse 1.3089122
Ġthe 2.5437045
Ġprivate 5.7073765
Ġsector 0.29769126
Ġswapped 14.166052
Ġits 1.8534374
Ġsources 8.0303335
Ġof 0.06221968
Ġfunding 1.7143952
Ġfrom 2.4601395
Ġformal 8.401862
Ġto 2.7784326
Ġinformal 0.18370368
, 4.8132515
Ġgenerating 5.7191024
Ġwhat 4.0457
ĠI 0.9063688
Ġcalled 3.7445974
Ġfinancial 1.3301601
Ġhy 0.060395904
ste 0.0053866263
res 3.762558e-05
is 9.663671e-05
: 4.215763
Ġonce 6.632107
Ġthe 0.40638232
Ġeconomy 3.1986382
Ġrecovers 2.9492204
Ġthe 1.876693
ĠGDP 7.901087
Ġgrowth 4.2927284
Ġpath 6.5022755
, 3.4650078
Ġcredit 2.7921135
Ġto 0.28378057
Ġthe 0.05368908
Ġprivate 0.05139205
Ġsector 0.011493281
Ġstill 6.8997374
Ġdecreases 4.4147677
. 1.6080381
ĠI 3.3806586
Ġargued 3.3164852
Ġthat 0.1449421
Ġsuch 3.7579343
Ġa 0.6633466
Ġsituation 1.9236977
Ġmight 4.5211244
Ġbe 1.2955558
Ġdriven 6.43251
Ġby 0.11782604
Ġa 1.8871205
Ġprivate 7.253919
Ġsector 1.0141656
Ġlack 5.500204
Ġof 0.007297956
Ġconfidence 0.9457398
Ġtowards 5.3976216
Ġthe 0.5213783
Ġbanking 2.9137483
Ġsystem 0.54692405
. 1.7022493
ĠInterestingly 6.933441
, 0.23857838
ĠI 2.3654451
Ġalso 1.9832394
Ġfound 2.1756623
Ġevidence 1.6988068
Ġin 3.6132197
ĠIndonesia 5.5278907
Ġand 1.5108942
ĠMexico 0.017971734
Ġof 2.1425045
Ġthe 1.773666
Ġreduction 8.378146
Ġof 0.6263938
Ġthe 1.854492
Ġratio 4.5233626
Ġof 0.19884457
Ġcredit 1.3450229
Ġto 0.077511534
Ġthe 0.1418335
Ġprivate 0.07425465
Ġsector 0.03716893
Ġ/ 12.090892
ĠGDP 0.8268425
Ġeven 4.833068
Ġafter 0.80208635
Ġmany 8.721632
Ġperiods 7.6026464
Ġof 0.03176873
Ġsustained 5.928889
Ġeconomic 2.435688
Ġgrowth 0.18904868
. 0.6591949
ĠHowever 3.8430142
, 0.05937021
Ġconsidering 7.379683
Ġthe 0.47894004
ĠGranger 13.27412
Ġcaus 1.3195134
ality 0.02043362
Ġtest 5.1689134
ĠI 1.8766589
Ġfound 1.121033
Ġthat 0.952085
Ġthe 0.77101564
ĠGDP 5.114841
ĠGranger 3.3859088
Ġcauses 1.5844439
Ġcredit 1.5622661
Ġto 0.070152625
Ġthe 0.04841258
Ġprivate 0.0121909445
Ġsector 0.011654463
Ġin 3.3038676
Ġthe 1.7256598
Ġcases 4.3741736
Ġof 0.1717755
ĠArgentina 2.7115715
Ġand 0.47349793
ĠMexico 0.6169056
, 1.4157864
Ġwhich 3.9069247
Ġmay 2.8256094
Ġsuggest 4.2186213
Ġfurther 6.8857636
Ġincrements 11.913834
Ġin 0.796124
Ġthis 3.846025
Ġaggregate 8.546122
. 1.6154943
ĠA 4.7002788
Ġset 5.1115565
Ġof 0.0026387384
Ġpolicies 3.2868245
Ġwhich 4.4472713
Ġmay 2.9390848
Ġhelp 1.2996979
Ġin 2.5677626
Ġboth 6.5617766
Ġrestoring 7.8747296
Ġthe 0.7761709
Ġcurrent 6.1492486
Ġsituation 0.5348638
Ġof 0.97549886
Ġthe 0.065699145
ĠArgentine 0.56162226
Ġbanking 2.290286
Ġsystem 0.11750735
Ġand 0.7196266
Ġavoiding 0.8480835
Ġa 1.7266474
Ġfuture 2.948601
Ġcrisis 2.214719
Ġwas 4.0693846
Ġdiscussed 3.4240222
, 3.5044754
Ġsummar 7.592578
ised 0.47428048
Ġthus 9.28055
: 0.87167096
Ġ( 0.6779395
i 0.07217585
) 0.004749092
Ġencouraging 6.061291
Ġthe 1.0528997
Ġstability 6.674661
Ġof 0.10432195
Ġthe 0.25474522
Ġmacro 4.9493504
economic 0.24570931
Ġand 2.2054915
Ġinstitutional 1.0623289
Ġframeworks 1.9854549
Ġ( 3.1782181
ii 6.746576
) 0.016082628
Ġpromoting 3.708065
Ġan 3.9844034
Ġadequate 3.1134348
Ġregulatory 0.34195235
Ġand 1.9792325
Ġsuper 0.38898945
visory 0.00034738888
Ġsystem 2.3264744
Ġaccording 8.597722
Ġto 0.010473329
Ġthe 0.8387957
Ġnew 4.4676766
Ġeconomic 3.6462793
Ġenvironment 3.1602397
, 1.092733
Ġ( 0.28371537
iii 0.04783171
) 0.0011170299
Ġenhancing 3.2651224
Ġbanking 4.64623
Ġsystem 4.8884087
Ġtransparency 3.2314887
, 1.5360073
Ġproviding 7.734009
Ġall 6.712128
Ġrelevant 3.1029723
Ġinformation 1.0247828
Ġto 1.1882449
Ġtheir 7.65293
Ġcustomers 1.7280244
, 0.8030904
Ġ( 0.4336279
iii 7.0997586
) 0.031585287
Ġavoiding 5.436913
Ġthe 1.5305818
Ġdollar 11.532419
ization 0.96150106
Ġof 0.10112291
Ġthe 0.9580508
Ġbanking 0.32977596
Ġsystem 0.56148064
Ġand 1.8195697
Ġ( 0.6170565
iv 0.03334508
) 0.0014720791
Ġreducing 3.3893518
Ġloans 8.727369
Ġto 0.62984085
Ġthe 0.61433274
Ġpublic 2.499411
Ġsector 0.4372717
Ġas 3.7533913
Ġmuch 0.44010222
Ġas 0.0034217578
Ġpossible 0.01356018
. 0.4410283
ĠVal 10.205148
uable 1.3015653
Ġextensions 8.422724
Ġof 0.9185722
Ġthe 0.9055068
Ġpaper 4.911335
Ġare 1.0457554
Ġpostponed 10.951788
Ġfor 2.0944703
Ġfurther 4.422637
Ġresearch 2.1785417
. 0.7173066
ĠIt 4.6714964
Ġseems 2.9950817
Ġinteresting 5.7505517
Ġto 0.3693794
Ġexplore 3.8152673
Ġin 3.5013363
Ġdetail 1.97998
Ġthe 0.5282297
Ġaforementioned 8.28686
Ġhypothesis 8.7409935
Ġof 2.6436481
Ġfinancial 1.2251536
Ġhy 0.116484284
ste 0.006279876
res 3.953198e-05
is 0.0001711534
Ġin 1.729729
Ġthe 0.60470426
Ġaftermath 5.5871706
Ġof 0.0044110133
Ġa 1.45573
Ġbanking 0.57112414
Ġcrisis 0.31606954
. 0.7430587
ĠA 3.951882
Ġfirst 5.1168156
Ġstep 1.4659258
Ġin 2.2273943
Ġthis 0.6076152
Ġdirection 0.3416047
Ġshould 4.4511213
Ġbe 0.07080875
Ġto 0.33988756
Ġextend 4.8688297
Ġthe 0.42462704
Ġinternational 8.323305
Ġevidence 4.457486
Ġas 5.5555344
Ġwell 1.2664521
Ġas 0.068729326
