The 2.5806708
Ġjudgement 12.416721
, 4.048834
Ġthat 5.0816736
ĠSomerset 12.406996
ĠCounty 1.3519146
ĠCouncil 0.18791233
Ġwas 2.5020275
Ġin 2.7654781
Ġbreach 0.39180413
Ġof 0.015546525
Ġits 2.2814035
Ġduty 1.5821992
Ġto 0.6285054
Ġan 7.33158
Ġover 6.482044
worked 5.2498603
Ġteacher 6.4454713
, 1.0551715
ĠMr 6.355235
ĠBarber 8.0663185
, 0.7430041
Ġwas 1.3423522
Ġ" 4.6946344
fair 4.8292747
ly 1.29062
Ġclose 5.263353
Ġto 0.55115235
Ġthe 0.9504551
Ġborderline 8.582225
." 5.3147464
ĠThis 5.8636293
Ġis 1.517971
Ġa 1.9765074
Ġclear 4.5455375
Ġindication 2.5811138
Ġthat 0.48540917
Ġthe 0.8273762
Ġstandard 7.152274
Ġof 0.3909058
Ġcare 2.5366452
Ġthat 2.627312
Ġan 4.766452
Ġemployer 1.3316576
Ġowes 4.7569823
Ġto 1.1302727
Ġhis 4.022255
Ġemployee 1.5988015
Ġis 0.9179006
Ġstill 5.2326756
Ġin 3.144063
Ġan 4.711434
Ġunstable 6.4907684
Ġcondition 3.5903184
, 2.012764
Ġand 1.1931739
Ġthus 6.6209927
Ġit 3.0952182
Ġis 0.5129175
Ġnecessary 3.981672
Ġto 0.50091344
Ġconsider 2.669526
Ġwhether 1.4416941
Ġthe 0.85569835
ĠHouse 11.099579
Ġof 0.15869874
ĠLord 6.0453086
Ġadequately 11.652765
Ġbalanced 5.312351
Ġthe 0.41579467
Ġconstraints 7.9160676
Ġupon 4.4327583
Ġthe 0.85138094
Ġemployer 1.9573226
Ġwith 4.396052
Ġthe 0.26633182
Ġinterests 3.4212766
Ġof 0.040758952
Ġthe 0.3200208
Ġemployee 0.3167163
. 0.2744613
ĠThis 3.54075
Ġessay 9.225757
Ġwill 1.3831218
Ġtherefore 4.2601075
Ġfocus 2.8615646
Ġon 0.26649946
Ġthe 0.5831747
Ġdevelopments 9.039483
Ġin 0.8048437
Ġthe 0.55114067
Ġworkplace 7.411796
Ġover 3.324597
Ġthe 0.27223596
Ġlast 0.59038925
Ġthirty 4.382962
Ġyears 0.19338857
, 1.0481305
Ġespecially 5.321732
Ġin 1.28171
Ġthe 1.3926378
Ġeducational 6.1917143
Ġsector 0.5360314
; 5.151136
Ġand 1.7533966
Ġthe 2.452492
Ġextent 3.9690132
Ġto 0.10678185
Ġwhich 0.002070737
Ġan 4.2458234
Ġemployer 0.36571586
Ġshould 3.7790818
Ġbe 1.2624485
Ġable 1.6782609
Ġto 0.01667379
Ġrely 3.2289975
Ġon 0.665706
Ġthe 0.87561643
Ġrealities 9.692399
Ġof 0.11189963
Ġmodern 4.428576
Ġwork 3.1443994
Ġto 1.3727893
Ġdetermine 3.7334802
Ġthe 1.2838908
Ġstandard 3.486299
Ġof 0.02522785
Ġcare 0.31397194
Ġthey 6.4512887
Ġowe 2.024962
Ġto 0.619095
Ġtheir 0.35209626
Ġemployees 0.3682241
. 0.19050446
ĠSupport 11.800681
Ġhas 4.815705
Ġgrown 5.620701
Ġfor 0.64774024
Ġpolicies 6.216544
Ġthat 1.3296642
Ġencourage 2.6947987
Ġcompetition 9.353646
, 2.1894088
Ġincrease 5.391175
Ġefficiency 3.1125598
Ġand 0.67361164
Ġpriorit 9.4916315
ise 0.014434572
Ġthe 1.3805844
Ġmarket 8.761267
Ġeconomy 3.8478286
, 1.7121052
Ġespecially 4.5932126
Ġin 0.6752623
Ġlight 6.210048
Ġof 0.002157825
Ġadvancing 10.627363
Ġtechnology 1.1698636
Ġand 1.5801613
Ġglobal 4.9713364
isation 0.18805526
. 0.2369546
ĠIn 2.8543367
Ġthe 1.372307
Ġeducation 4.080971
Ġsystem 6.257221
, 0.31350452
Ġfor 4.0509624
Ġexample 0.5110733
, 0.028272884
Ġthe 1.3052062
Ġintroduction 3.8848176
Ġof 0.04322321
ĠOf 7.2688017
sted 0.3171343
Ġinspection 2.1903348
Ġand 2.708877
Ġthe 1.8789821
Ġproduction 7.97433
Ġof 0.23380658
Ġleague 9.12077
Ġtables 0.023962287
Ġhave 2.0768044
Ġencouraged 3.8438776
Ġcompetition 3.7429388
Ġbetween 2.607773
Ġschools 1.139281
, 1.1324809
Ġwhose 6.7022924
Ġfunding 6.449966
Ġis 1.394815
Ġnow 2.4940293
Ġbased 2.7780423
Ġon 0.3521384
Ġenrol 8.970823
ment 0.40799227
Ġnumbers 4.5841146
. 1.2476786
ĠHowever 3.1139328
, 0.043570932
Ġschools 4.9111514
Ġwhich 4.809243
Ġtend 7.335052
Ġto 0.026420476
Ġhave 2.7470345
Ġchildren 7.968991
Ġfrom 1.5207149
Ġdisadvantaged 2.3158584
Ġbackgrounds 0.11445111
Ġdo 4.6669354
Ġnot 0.15275243
Ġdo 6.1446075
Ġas 1.6188545
Ġwell 0.02967635
Ġas 2.322066
Ġtheir 3.5079272
Ġcompetitors 3.7664857
, 1.19953
Ġand 0.8955297
Ġso 3.5648148
Ġtheir 4.3691435
Ġenrol 6.601385
ment 0.34113348
Ġand 4.347402
Ġthus 7.3790083
Ġfunding 2.6274383
Ġdeclines 5.6569524
. 0.35459653
ĠLord 9.268049
ĠScott 7.262939
Ġargued 7.4015503
Ġthat 0.44041935
Ġ" 2.8478367
In 4.474778
Ġunder 10.0182
Ġfunded 8.123619
Ġinstitutions 4.5655127
Ġproviding 9.672906
Ġvital 6.4598002
Ġsocial 4.0972905
Ġservices 0.3788291
Ġthere 4.356229
Ġis 0.79375714
Ġoften 3.5907161
Ġvery 4.692311
Ġlittle 0.17849204
Ġthat 3.8085678
Ġthe 2.0105462
Ġemployers 5.521641
Ġcan 0.715124
Ġdo 0.28277966
Ġabout 2.335449
Ġstress 11.174034
Ġproblems 8.261865
." 2.3616138
ĠHe 2.612936
Ġquestions 10.438685
Ġthe 1.0289261
Ġpractical 5.752145
ities 2.5987592
Ġof 0.12621549
Ġthe 2.1406991
Ġschool 4.0505657
Ġbeing 5.2502446
Ġable 2.5364068
Ġto 0.024023522
Ġafford 3.4893064
Ġa 2.3526692
Ġsupply 7.963664
Ġteacher 3.3663452
Ġor 4.183204
Ġthe 3.1854758
Ġfairness 10.170026
Ġof 0.07381461
Ġasking 6.069107
Ġcolleagues 7.8971815
Ġto 0.3613368
Ġdo 3.3155
Ġextra 2.4725864
Ġwork 1.0598091
. 1.6269011
ĠIt 3.692599
Ġmay 3.7737293
Ġfurther 8.804758
Ġbe 0.48726198
Ġargued 0.6872326
Ġthat 0.04045913
Ġif 3.8178105
Ġsociety 8.932402
Ġbelieves 4.904333
Ġthat 0.40390787
Ġthe 1.8292965
Ġpsychiatric 13.321765
Ġhealth 4.5120234
Ġof 0.9010428
Ġits 3.0853047
Ġcitizens 1.2840006
Ġis 0.5878807
Ġmore 2.8358552
Ġbeneficial 9.171569
Ġto 1.9653448
Ġsociety 1.9255431
Ġthan 0.45756903
Ġefficiency 9.351424
Ġand 2.2028942
Ġcompetition 2.085955
, 0.37049863
Ġthen 0.7040647
Ġit 1.6537516
Ġis 1.4229718
Ġthe 4.1665616
Ġrole 4.6545153
Ġof 0.009404838
Ġpolicy 5.6566386
Ġmakers 1.2035698
Ġto 0.16716881
Ġchange 6.0814886
Ġthings 6.8541036
Ġon 5.554305
Ġthe 1.1473949
Ġmacro 8.78814
Ġlevel 0.8641144
, 1.4413564
Ġby 3.5985577
, 5.8746333
Ġfor 0.26189235
Ġexample 0.03924185
, 0.018261123
Ġintroducing 2.433294
Ġa 1.9452387
Ġcomprehensive 6.571586
Ġsystem 2.674852
Ġof 0.21466132
Ġeducation 3.6944447
, 2.3768675
Ġrather 3.0397801
Ġthan 0.0039822077
Ġmaking 4.903003
Ġit 1.9955707
Ġthe 3.1098158
Ġresponsibility 1.9432222
Ġof 0.01802805
Ġemployers 3.01407
Ġto 0.321385
Ġrelieve 9.548658
Ġstress 1.2534716
Ġof 5.239241
Ġindividual 6.6161704
Ġemployees 2.8205097
. 0.39544466
ĠTherefore 6.4088125
Ġfrom 8.833349
Ġan 2.2949672
Ġemployer 1.0729952
's 0.10011034
Ġpoint 1.0321902
Ġof 0.0075472766
Ġview 0.0017829479
Ġit 2.4503667
Ġcan 4.0960236
Ġbe 0.629844
Ġargued 0.67218065
Ġthat 0.048667617
Ġthe 1.2561146
ĠHouse 5.549366
Ġof 0.006876015
ĠLords 1.8539025
Ġjudgement 5.759729
Ġdid 5.598824
Ġnot 0.19550171
Ġconsider 5.55457
Ġthe 0.6838373
Ġchanges 7.2670016
Ġthat 1.5669711
Ġhave 1.8339341
Ġoccurred 1.3797114
Ġin 0.47544637
Ġthe 0.25364164
Ġworkplace 2.1728833
Ġover 2.4622405
Ġthe 0.07104159
Ġlast 0.08900562
Ġthirty 0.6347467
Ġyears 0.025199855
. 1.3367168
ĠIf 4.5976186
Ġhowever 6.2978754
Ġthe 1.6836451
Ġemployer 4.3983912
Ġaccepts 5.8274436
Ġthat 0.8745133
Ġthe 1.0076667
Ġhuge 10.583953
Ġtechnical 8.122706
Ġadvancements 4.0890656
Ġthroughout 8.572152
Ġthe 0.25445023
Ġworld 3.4782894
Ġmay 5.434385
Ġmake 3.294301
Ġit 1.299585
Ġimp 6.154179
ract 0.43510225
icable 0.011161601
Ġfor 1.6431594
Ġpolicy 8.343871
Ġmakers 0.075607836
Ġto 0.0755629
Ġchange 2.317798
Ġdirection 9.016426
Ġin 2.3002117
Ġthe 0.93690765
Ġglobal 6.8753796
Ġmarket 3.5572436
, 1.2301205
Ġthen 0.5714684
Ġthe 1.1368182
Ġemployer 2.7862358
Ġmay 1.6351802
Ġinstead 6.5992746
Ġargue 4.466327
Ġthat 0.060140647
Ġin 4.5613403
Ġthis 3.0455122
Ġever 7.9556966
- 1.4847546
changing 0.5610942
Ġsociety 4.225315
Ġit 1.9614065
Ġis 0.55293065
Ġfor 5.970001
Ġthe 1.0250459
Ġindividual 2.0691366
Ġto 1.2575493
Ġbe 3.9797359
Ġresponsible 1.9799778
Ġfor 0.25344127
Ġtheir 1.6276277
Ġown 0.4371655
Ġmental 3.8279696
Ġhealth 0.14059708
. 1.0369775
ĠThis 2.549168
Ġindividual 6.4310894
Ġresponsibility 1.5864257
Ġwas 5.0570126
Ġadvocated 6.431475
Ġby 0.3417862
ĠLord 2.7913601
ĠScott 1.5991688
Ġwhen 3.8802588
Ġhe 0.16877621
Ġasserted 5.762784
Ġthat 0.18350087
Ġemployees 5.565409
Ġ" 2.465962
are 2.7423806
Ġall 5.8738747
Ġadults 7.035419
" 3.118766
ĠThis 10.798975
Ġview 4.4235196
Ġis 1.471207
Ġsupported 2.3209286
Ġby 0.06209663
ĠKelly 9.739155
Ġand 1.9655933
ĠCol 6.541251
qu 3.415342
houn 0.029062115
Ġwho 2.4513543
Ġreflect 8.4559765
Ġon 1.3478115
Ġthe 0.31220323
Ġwork 5.012796
Ġof 0.56124157
ĠFou 9.261398
c 0.5433132
ault 0.023056602
Ġ( 4.4671264
2000 4.3219
) 0.6766638
Ġin 1.7978472
Ġassessing 6.871336
Ġthe 0.42374513
Ġresponsibility 4.6496406
Ġof 0.114915304
Ġteachers 4.6288843
. 1.6740061
ĠFou 2.7706707
c 0.00033003604
ault 0.005275111
Ġargues 1.7645153
Ġthat 0.05718237
Ġ' 5.598642
to 4.1719713
Ġbe 1.550558
Ġa 1.184954
Ġprofessional 4.0469933
Ġmeans 4.4438267
Ġto 0.32043287
Ġbe 0.5761407
Ġa 1.2946774
Ġperson 4.4250255
Ġcapable 3.3717408
Ġof 0.036485646
Ġmaking 2.1561377
Ġchoices 2.2756093
Ġand 2.2530212
Ġaccepting 6.1514144
Ġresponsibilities 2.800306
Ġthat 2.7580628
Ġare 1.3357831
Ġframed 8.865569
Ġby 1.1488959
Ġa 2.501834
Ġduty 6.197941
Ġof 1.3216542
Ġcare 1.0804195
Ġto 1.8184768
Ġmanage 8.137838
Ġone 3.538017
's 0.04881794
Ġhealth 3.7185583
Ġand 1.0364617
Ġwellbeing 3.9173455
Ġto 5.493185
Ġmaxim 5.1013117
ise 0.0050918916
Ġorganis 11.596904
ational 0.00044642974
Ġperformance 2.3924603
Ġand 1.9058043
Ġeffectiveness 5.906442
." 5.2859344
ĠThus 4.316678
Ġfor 4.4100847
Ġa 1.7972356
Ġteacher 0.44377536
Ġto 0.84922737
Ġconsider 6.707075
Ġthemselves 3.43235
Ġas 1.5590361
Ġ' 3.3320577
a 2.1615174
Ġprofessional 1.17991
' 0.21737608
Ġthey 1.8557285
Ġ" 5.5587645
must 0.6701082
Ġmaintain 6.334263
Ġbalance 6.6383634
Ġin 1.8732295
Ġthe 1.7471131
Ġmidst 7.707525
Ġof 0.0044235853
Ġchange 3.648926
, 1.3956513
Ġuncertainty 5.402444
Ġand 0.47316298
Ġrisk 3.9199834
." 1.62521
ĠTherefore 3.9767547
Ġit 2.2984765
Ġcan 3.5452788
Ġbe 0.10131569
Ġargued 0.07755585
Ġthat 0.052992225
Ġthe 1.1403699
ĠHouse 1.1602654
Ġof 0.0028493055
ĠLords 0.09722106
Ġdid 5.6081047
Ġnot 0.09321094
Ġtake 2.965804
Ġaccount 2.0897746
Ġof 0.026359525
Ġthe 0.37727898
Ġrealities 5.013659
Ġof 0.108081646
Ġmodern 0.9674764
Ġwork 0.3697935
Ġbecause 6.217568
Ġthey 2.1036966
Ġchose 6.7167068
Ġto 0.259487
Ġignore 2.4472933
Ġthe 0.31063655
Ġindividual 6.3648767
Ġresponsibility 1.595623
Ġof 0.62563515
Ġ' 6.9474
a 2.4768984
Ġprofessional 0.40376648
' 0.68538535
Ġ( 3.7086573
who 5.2515907
Ġin 3.891516
Ġthis 1.1316277
Ġcase 0.4824485
Ġwas 1.958338
Ġa 0.9965217
Ġteacher 0.52487713
) 0.84394115
Ġto 1.126738
Ġtake 3.53053
Ġcare 1.7532893
Ġof 0.040489353
Ġthemselves 1.7257177
Ġfor 5.7232924
Ġthe 0.90161824
Ġbenefit 2.153507
Ġof 0.012464244
Ġthe 1.1845878
Ġorganisation 3.0051672
Ġthey 4.040341
Ġwork 0.8511864
Ġfor 0.13197006
. 0.21432595
ĠIn 2.548299
Ġaddition 3.1088061
Ġto 1.373498
Ġindividual 6.4698863
Ġresponsibility 0.23236787
, 0.6950674
Ġthere 2.0402086
Ġis 0.7094806
Ġa 1.6563956
Ġstrong 4.610053
Ġargument 2.6689107
Ġfor 2.6273816
Ġadherence 10.903178
Ġto 0.03873601
Ġcontractual 6.2215157
Ġresponsibility 5.7969384
. 1.1849909
ĠLord 4.0964236
ĠRoger 10.093131
Ġsuggests 7.966373
Ġthat 0.12386094
Ġit 3.546389
Ġwould 3.4023051
Ġbe 0.127153
Ġunfair 4.0007777
Ġon 4.2751117
Ġthe 1.0908593
Ġemployer 1.0912557
Ġto 0.40623963
Ġexpect 2.3066783
Ġanything 8.520801
Ġless 0.5822437
Ġthan 0.68987954
Ġthat 4.6817374
Ġwhich 2.972762
Ġthe 1.9483889
Ġemployee 0.81081724
Ġhas 2.332613
Ġpromised 4.4357357
Ġto 0.9888526
Ġcarry 4.9278526
Ġout 0.05174419
. 0.87015694
ĠHowever 2.561349
Ġit 2.9036243
Ġis 0.7081185
Ġvery 5.709441
Ġdifficult 0.9810412
Ġto 0.2207488
Ġsee 1.9747474
Ġhow 0.43966052
Ġan 2.8538675
Ġemployer 0.12950131
Ġcould 1.93557
Ġprevent 7.700781
Ġpsychiatric 10.873187
Ġharm 5.8642764
Ġwithout 4.1444583
Ġactually 5.5083795
Ġinterfering 5.8508706
Ġwith 0.26227814
Ġcontractual 5.3185825
Ġobligations 1.0435352
. 0.65499
ĠIn 2.4180539
Ġthe 1.7871513
Ġpast 4.0129724
, 1.3958606
Ġwhen 3.3663123
Ġthe 2.1557915
Ġindustrial 6.782905
Ġsector 4.0656133
Ġwas 0.5594253
Ġdeveloping 5.2623672
, 0.75255144
Ġit 1.8768204
Ġwas 0.18672656
Ġquite 4.43873
Ġstraightforward 6.1297374
Ġto 1.1102079
Ġimpose 4.907874
Ġa 2.121575
Ġduty 0.87393636
Ġto 2.4041579
Ġtry 7.629424
Ġand 0.80969876
Ġprevent 1.2039143
Ġphysical 5.104319
Ġharm 0.7108567
Ġas 5.152657
Ġthis 4.0856214
Ġsimply 7.1921067
Ġmeant 2.6025076
Ġensuring 5.1060314
Ġthat 0.22286104
Ġreasonable 7.5487075
Ġprecautions 2.5788517
Ġwere 0.22536634
Ġtaken 0.24174152
, 3.386789
Ġwithout 4.0685806
Ġhaving 3.6202662
Ġto 0.16234405
Ġinterfere 3.421125
Ġwith 0.13153018
Ġthe 0.92431873
Ġcontract 2.7529356
. 0.96439993
ĠHowever 1.9353042
, 1.419944
Ġover 5.0468926
Ġthe 0.25739557
Ġpast 2.356962
Ġthirty 1.2887175
Ġyears 0.027057223
Ġthe 1.7131665
Ġservice 7.91903
Ġsector 1.0690594
Ġhas 0.27563253
Ġexpanded 4.610545
Ġquite 6.2408195
Ġsignificantly 2.188835
Ġand 1.6133667
Ġthus 4.7856617
Ġthe 1.2437999
Ġemphasis 5.3702197
Ġof 2.4620688
Ġhealth 4.770426
Ġand 0.6215976
Ġsafety 0.11539061
Ġhas 1.721688
Ġnow 4.9231567
Ġshifted 0.9202402
Ġto 0.9841147
Ġpsychiatric 11.460743
Ġharm 2.8912535
. 0.486202
ĠThus 3.221853
Ġit 1.5597587
Ġhas 3.1553137
Ġbeen 1.7057228
Ġargued 0.73477507
Ġthat 0.14266442
Ġthis 4.287849
Ġshift 1.0490069
Ġhas 2.076766
Ġplaced 4.4040017
Ġan 1.6529378
Ġunfair 3.8132539
Ġburden 0.43905407
Ġon 0.23243172
Ġthe 0.9693569
Ġemployer 1.4962946
Ġwho 3.3829565
Ġcannot 3.7681434
Ġnow 4.2647567
Ġdepend 6.210105
Ġon 0.3257437
Ġthe 0.84418243
Ġrights 6.701818
Ġof 0.329753
Ġhis 3.5117955
Ġcontractual 5.5284696
Ġagreement 5.720359
. 1.7175521
ĠFurthermore 4.024331
, 0.4814115
ĠLord 3.739597
ĠScott 1.049666
Ġrecogn 7.1888123
ises 0.0011722865
Ġthat 0.258906
Ġit 2.9779153
Ġis 0.3669878
Ġvery 3.9265366
Ġdifficult 0.21847796
Ġfor 1.4257282
Ġan 1.125938
Ġemployer 0.10403346
Ġto 0.09321356
Ġpredict 4.542521
Ġwho 5.1385403
Ġamong 8.791705
Ġtheir 1.0756755
Ġworkforce 2.1597552
Ġwill 0.6373547
Ġbe 1.1427779
Ġable 3.741522
Ġto 0.02122777
Ġcope 2.7245
Ġwith 0.1344514
Ġthe 0.9715289
Ġstresses 2.099011
Ġof 0.47941983
Ġa 2.4575002
Ġjob 2.976042
, 1.3618331
Ġespecially 3.4219968
Ġif 2.07099
Ġthe 1.4558595
Ġemployer 2.943287
Ġis 1.1919252
Ġnot 1.9392862
Ġfully 3.5680063
Ġinformed 2.389313
Ġof 0.64707524
Ġthe 0.6132217
Ġproblems 5.033795
Ġthat 0.86465114
Ġtheir 3.2284744
Ġemployees 1.0786673
Ġare 1.4754235
Ġencountering 5.1206098
. 0.2897972
ĠFurthermore 4.401634
Ġlowering 14.440576
Ġthe 0.35390285
Ġstandard 2.1258776
Ġof 0.011765607
Ġcare 0.19477999
Ġfrom 4.7779026
Ġthat 1.8800037
Ġprescribed 5.873912
Ġby 0.13472053
Ġthe 0.57337266
ĠHouse 1.551916
Ġof 0.0068464302
ĠLords 0.1092181
Ġjudgement 1.9386308
Ġto 2.4912686
Ġthat 0.655605
Ġpresented 7.909695
Ġby 0.22786422
Ġthe 0.8337229
ĠCourt 4.5705495
Ġof 0.31213516
ĠAppeal 0.031032166
Ġmay 2.8577442
Ġgive 5.4359426
Ġrise 1.8542297
Ġto 0.0057088467
Ġan 2.4325168
Ġargument 1.9097325
Ġin 3.8061998
Ġfavour 0.3801261
Ġof 0.01863373
Ġinterfering 8.6001625
Ġwith 0.16718473
Ġcontractual 1.4145279
Ġobligations 0.5487285
Ġas 4.4930105
Ġthis 2.1892836
Ġwould 1.2226251
Ġtherefore 4.86899
Ġbalance 8.984449
Ġthe 0.30585122
Ġemployer 2.7247066
's 0.20069256
Ġrights 4.3061514
, 4.5607176
Ġby 4.606649
Ġtaking 4.394376
Ġaccount 2.1702735
Ġof 0.02154411
Ġthe 0.2598517
Ġmodern 9.107371
Ġrealities 2.7376888
Ġof 0.0746999
Ġwork 1.4567024
, 2.2983854
Ġwith 2.792576
Ġthat 4.1705575
Ġof 0.2791042
Ġthe 0.30160198
Ġemployee 0.7205955
's 2.07406
. 2.0162597
ĠHowever 2.5666792
, 0.6708951
ĠLord 3.7863715
ĠWalker 5.7825446
Ġdid 4.9758654
Ġnot 0.20088623
Ġaccept 2.05097
Ġthat 1.3213404
Ġthe 1.2637756
Ġstandard 5.049004
Ġof 0.020984266
Ġcare 0.10983911
Ġoffered 5.737534
Ġto 3.388248
ĠMr 5.261356
ĠBarber 0.091979176
Ġwas 0.5853113
Ġsatisfactory 4.746975
. 0.68206716
ĠHe 1.2626554
Ġbelieved 4.356563
Ġit 4.321389
Ġwas 0.5584891
Ġreasonable 4.063265
Ġfor 1.091054
ĠMr 2.9531019
ĠBarber 0.019402813
Ġnot 4.319179
Ġto 0.058506954
Ġinform 7.525952
Ġthe 0.9671169
Ġhead 5.515431
Ġteacher 1.8577614
Ġof 0.7260018
Ġhis 0.7514025
Ġcircumstances 6.4754486
Ġas 3.420202
Ġfrequently 9.384149
Ġor 7.669383
Ġin 3.7367153
Ġas 2.7757561
Ġmuch 1.1090862
Ġdetail 0.013893922
Ġas 0.09368194
Ġwas 1.986976
Ġset 9.786283
Ġout 0.086683266
Ġin 0.1643499
ĠLady 9.609231
ĠHale 2.4967482
's 0.11088555
Ġguidelines 6.1726327
. 0.3868601
ĠThis 2.413606
Ġis 1.5687699
Ġbecause 2.1529334
Ġas 4.5982513
ĠLord 1.3605213
ĠWalker 0.5656281
Ġexplained 3.624352
ĠFurthermore 14.52283
Ġin 3.6525643
Ġlight 5.428714
Ġof 0.0022897269
Ġwhat 4.230619
Ġwas 2.9223597
Ġknown 3.1525755
Ġby 5.3555827
Ġthe 0.7398788
Ġhead 1.6569362
Ġteacher 0.10849006
Ġand 2.6476157
Ġthe 0.9377512
Ġtwo 6.8434024
Ġdeputy 5.949378
Ġhead 0.53073287
Ġteachers 0.2711212
, 1.0661619
Ġthat 2.9389002
Ġis 6.0067787
, 1.1984732
Ġthat 0.5586485
ĠMr 1.0370399
ĠBarber 0.034807723
Ġhad 1.1971613
Ġtaken 4.022057
Ġthree 4.8845305
Ġweeks 1.6143425
Ġoff 0.91031015
Ġschool 2.8713024
Ġfor 2.6414971
Ġstress 5.626023
Ġand 1.2605147
Ġdepression 2.7682123
, 0.47274694
Ġand 1.7979099
Ġhad 1.3594214
Ġapproached 8.273455
Ġsenior 6.9921503
Ġmanagement 1.1317773
Ġwith 1.8722383
Ġhis 1.7796302
Ġconcerns 0.37942377
, 0.46459785
Ġhe 2.7899122
Ġargues 6.698496
Ġthat 0.12647189
Ġpositive 11.481248
Ġsteps 4.7307477
Ġshould 1.3443182
Ġhave 1.2235838
Ġbeen 0.013453185
Ġtaken 0.036959548
Ġto 0.89864314
Ġlimit 6.804061
Ġthe 0.69866467
Ġdamage 4.241655
Ġpossible 7.814249
Ġand 3.726853
Ġimprove 5.473598
Ġthe 0.38298684
Ġsituation 2.8620262
Ġso 4.591436
Ġas 1.9975984
Ġnot 2.3210704
Ġto 0.009783004
Ġlose 5.591218
Ġsuch 6.833162
Ġa 0.8966079
Ġconscientious 6.4788575
Ġand 1.6561718
Ġdedicated 1.8501364
Ġteacher 0.991269
. 0.2723774
ĠHe 3.0944102
Ġdid 5.4644613
Ġnot 0.42013812
Ġaccept 2.1229172
Ġthat 0.25993052
Ġthe 1.0769056
Ġstrains 11.511427
Ġof 1.3352668
Ġmodern 3.9238286
Ġwork 0.46896034
Ġor 7.285961
Ġchanges 6.885086
Ġin 0.26358584
Ġthe 0.5952291
Ġworkplace 2.0899398
Ġplaced 6.258943
Ġtoo 3.9332552
Ġhigher 10.979055
Ġburden 6.1431346
Ġon 0.27515304
Ġthe 0.503414
Ġemployer 0.97761226
Ġfrom 6.9433374
Ġdoing 6.5011744
Ġso 1.0045782
. 0.36949727
ĠHowever 2.7370882
, 0.52964437
Ġthe 2.0840938
ĠHouse 2.378975
Ġof 0.0021362633
ĠLords 0.06213785
Ġdecision 2.7500901
Ġdid 2.1339862
Ġnot 0.3602902
Ġseem 4.758915
Ġto 0.0657379
Ġlook 6.852249
Ġat 0.49393156
Ġmuch 7.2260404
Ġmore 2.3960874
Ġthan 0.24292132
Ġthe 1.007322
Ġinteraction 8.61582
Ġbetween 0.36267582
Ġthe 0.49211273
Ġemployer 2.1291916
Ġand 0.0662034
Ġemployee 1.8899189
- 8.6535845
Ġsingled 13.606187
Ġout 0.050392445
Ġfrom 6.4414096
Ġthe 0.48515537
Ġrest 2.668166
Ġof 0.049037833
Ġthe 0.088419296
Ġworld 5.2002134
. 0.83695424
ĠThe 1.7770479
Ġmajority 4.037867
Ġdecision 3.185178
Ġlooks 7.889541
Ġat 0.5945654
Ġthe 0.64300835
Ġemployer 3.9011633
's 0.4820449
Ġduty 2.1101418
Ġof 1.9405366
Ġcare 0.02494536
Ġwithout 6.811397
Ġtaking 2.2312872
Ġinto 0.6769663
Ġaccount 0.2904696
Ġthe 0.44788194
