Love 8.0118475
Ġhas 5.4371486
Ġbeen 2.221782
Ġa 1.9509522
Ġrecurrent 7.945471
Ġand 7.092194
Ġin 5.7007174
escap 0.997609
able 0.0029421374
Ġhuman 6.6669846
Ġemotion 0.96285063
Ġsince 1.8457031
Ġancient 3.4367433
Ġtimes 0.13772544
. 0.31308472
ĠFrom 4.185007
Ġepic 6.909653
Ġnarratives 6.0368705
Ġto 0.9556631
Ġconcise 10.689541
Ġverses 5.9624295
, 0.862588
Ġpoets 4.691877
Ġhave 0.9013426
Ġbeen 2.9376056
Ġincorporating 6.8071566
Ġtheir 4.1405215
Ġpersonal 3.9056952
ĠMus 13.096179
as 11.777225
Ġ( 2.2408984
mus 8.08374
ings 1.3529761
) 0.3107426
Ġinto 0.64774823
Ġtheir 0.6300339
Ġworks 2.07414
Ġto 2.8163567
Ġevoke 3.984222
Ġa 2.088934
Ġsense 1.5160831
Ġof 0.003353457
Ġpassion 4.3931894
Ġand 1.0613376
Ġcontemplation 8.803449
. 0.23803662
ĠTwo 7.8926125
Ġlove 6.393652
Ġpoems 1.0318993
Ġthat 3.0313885
Ġexempl 4.9385
ify 0.056068912
Ġthis 0.39717048
Ġare 1.934343
ĠSon 7.7999535
net 0.9097276
Ġ18 4.551054
Ġby 2.3346655
ĠWilliam 1.444643
ĠShakespeare 0.5821512
Ġand 0.22329105
ĠMy 6.8231244
Ġmistress 11.919981
' 6.317096
Ġeyes 3.6837535
Ġby 1.5526543
ĠWilliam 2.3415296
ĠButler 3.6675384
ĠYe 0.031798203
ats 0.0013966904
. 0.15642363
ĠThrough 6.478993
Ġphon 12.306044
em 3.3002102
es 0.05066379
Ġand 1.0461111
Ġpatterns 4.4774814
, 0.9902441
Ġrhy 5.167733
me 0.48631534
, 1.304212
Ġstress 5.2836576
Ġpatterns 3.2382755
, 0.59679615
Ġsentence 6.424604
Ġstructures 2.1734197
, 0.43829829
Ġand 0.77952427
Ġmetaphor 5.5925565
Ġusage 7.72387
, 0.0674758
Ġthese 1.4831002
Ġtwo 1.2475595
Ġpoems 0.88073
Ġconvey 2.756765
Ġdifferent 4.327829
Ġperspectives 2.7081087
Ġon 0.87788373
Ġlove 0.57061875
Ġand 1.2752272
Ġoffer 7.051467
Ġa 1.2744216
Ġglimpse 1.8186888
Ġat 3.1395519
Ġthe 0.7660295
Ġsocietal 9.07276
Ġand 2.5655499
Ġcultural 1.3111619
Ġframeworks 8.054336
Ġthat 0.6513511
Ġinfluence 2.6317945
Ġthem 4.5995545
. 0.12946841
ĠTo 6.2290783
Ġbegin 5.452546
Ġwith 1.097113
, 0.11808887
ĠSon 3.6234295
net 0.0514703
Ġ18 0.032748114
Ġand 4.9619665
ĠMy 0.08582866
Ġmistress 0.036981568
' 0.15476991
Ġeyes 0.03081577
Ġhave 3.8471005
Ġa 1.6257484
Ġnotable 7.3830132
Ġcontrast 4.0645924
Ġin 1.2075365
Ġrhy 3.6121998
me 0.13353471
Ġpatterns 2.7727222
. 1.0360732
ĠShakespeare 2.5587857
's 0.8227421
Ġpoem 1.2732601
Ġfollows 4.159274
Ġan 3.063022
ĠA 5.078638
BA 0.32046178
B 1.7729428
ĠCD 13.1015215
CD 5.1235394
ĠE 7.901206
FE 4.0876727
F 1.2778376
ĠGG 9.352354
Ġstructure 5.1250997
, 1.2518566
Ġwhich 1.7146416
Ġconsists 4.9312167
Ġof 0.0123358825
Ġthree 2.6600497
Ġquadru 9.918689
plets 0.7964106
Ġand 2.812513
Ġa 2.0223107
Ġcouple 6.6060224
t 0.12786931
. 0.8255859
ĠMeanwhile 8.573409
, 0.074673116
ĠYe 1.1010987
ats 0.0007095007
' 0.45027253
Ġpoem 0.10254391
Ġhas 2.7629578
Ġan 2.481573
Ġirregular 4.172318
Ġstructure 1.0724143
, 1.2941375
Ġwhich 1.8321636
Ġcan 3.3230035
Ġbe 0.13043755
Ġseen 2.6935785
Ġin 0.6948605
Ġits 2.1271167
ĠABC 8.27537
B 2.4339654
ĠDE 7.1434274
FE 1.7880503
ĠF 3.762195
GH 5.1531186
I 5.041039
ĠJ 6.138547
K 4.1604466
J 3.0312831
I 6.7191434
Ġpattern 4.5657916
. 0.36172563
ĠAlthough 4.2605104
Ġthe 1.5002555
Ġinclusion 9.90405
Ġof 0.054726083
Ġa 2.5315833
Ġrepeated 7.975564
Ġline 5.2138267
Ġin 1.1934506
Ġthe 1.3977323
Ġstructure 3.6537464
Ġcreates 5.51934
Ġa 0.6537775
Ġsense 3.407526
Ġof 0.008732869
Ġharmony 5.598892
Ġwithin 4.2507668
Ġthe 0.21568096
Ġpoem 0.2780428
, 0.0674121
Ġdeviations 11.614417
Ġfrom 0.7690009
Ġthis 1.0407113
Ġpattern 3.1657724
Ġcan 1.35009
Ġcreate 2.0667565
Ġa 0.97637844
Ġsense 1.5093571
Ġof 0.01689054
Ġuncertainty 4.455511
Ġand 1.2038186
Ġinstability 3.4074817
. 0.5365672
ĠYe 5.87143
ats 0.00095951214
' 0.28088352
Ġpoem 0.1748945
Ġis 1.7395414
Ġmuch 3.9951918
Ġmore 0.5473781
Ġcoll 7.0654225
oqu 0.0258527
ial 0.041914456
, 1.565813
Ġin 4.1684237
Ġstark 7.5719213
Ġcontrast 0.016872173
Ġto 0.11491202
Ġthe 1.6883547
Ġi 9.500415
amb 0.05129284
ic 0.01187435
Ġpent 2.5779471
am 0.0048486306
eter 0.018784763
Ġused 3.806376
Ġin 0.65243876
ĠShakespeare 0.45515543
's 0.07219892
ĠSon 4.399701
net 0.07775645
Ġ18 1.5916317
. 0.20760809
ĠWhile 2.9810946
ĠSon 3.2325692
net 0.039709926
Ġ18 0.019815542
Ġis 1.4999565
Ġa 1.932666
Ġstrict 8.430244
Ġ14 9.254089
Ġlines 3.4943962
Ġlong 1.9509983
Ġand 2.5174124
Ġfollows 4.7950077
Ġa 0.6962807
Ġstandard 3.7801023
Ġson 8.31419
net 0.067795895
Ġform 2.0329735
Ġ– 8.93679
Ġwith 4.681121
Ġa 1.558892
Ġvol 12.636475
ta 2.1023986
, 7.096134
Ġor 4.585468
Ġa 3.4825711
Ġturn 6.0541644
, 1.4912214
Ġin 2.7358487
Ġthe 0.6363799
Ġninth 6.9999704
Ġline 0.2761986
Ġ– 0.8248407
ĠMy 1.0630932
Ġmistress 0.0093864845
' 0.022531092
Ġeyes 0.024603145
Ġlacks 6.4073796
Ġany 2.4681833
Ġsuch 2.0198462
Ġformal 3.7854888
Ġconstraints 5.607839
. 0.41285297
ĠIt 3.1916199
Ġdoes 4.3430157
Ġnot 0.7614165
Ġstrictly 7.05114
Ġadhere 2.9627419
Ġto 0.008750607
Ġany 2.0156834
Ġspecific 3.7741845
Ġmetre 5.010943
Ġand 2.5343072
Ġremains 6.6499243
Ġflowing 8.32853
Ġand 1.1594641
Ġfree 1.4724315
. 1.9989125
ĠAdditionally 4.7910852
, 0.006028891
Ġthe 1.4338032
Ġphon 9.204007
em 0.4149152
es 0.0025245997
Ġand 1.8053477
Ġpatterns 1.5403993
Ġused 1.4901226
Ġin 0.40099794
Ġthe 1.9468099
Ġpoems 2.713661
Ġfurther 7.289065
Ġhighlight 2.9534094
Ġtheir 1.6620473
Ġdifferences 3.0409334
Ġin 1.3595443
Ġtone 3.973102
. 1.4363875
ĠIn 2.370316
ĠSon 1.1448061
net 0.018484412
Ġ18 0.023085823
, 0.08253643
ĠShakespeare 2.0882237
Ġemploys 3.6692371
Ġseveral 5.7036185
Ġsoft 8.189818
Ġsounds 3.918554
, 1.4273796
Ġsuch 1.0306338
Ġas 0.017181315
Ġ" 3.9388015
shall 9.025299
ĠI 3.4144409
Ġcompare 7.1540065
Ġthee 1.8605236
Ġto 1.3928801
Ġa 1.0761282
Ġsummer 4.6086636
's 1.3931885
Ġday 0.5230456
?", 4.761796
Ġthat 5.226388
Ġcreate 3.5869277
Ġa 0.38731858
Ġdream 5.884431
y 0.5364376
Ġand 1.5860063
Ġimaginative 7.960659
Ġtone 2.800415
Ġwhile 4.3100653
Ġalso 4.0084586
Ġconve 2.2340508
ying 0.0019247732
Ġthe 2.1433904
Ġspeaker 6.260071
's 0.012064912
Ġadmiration 4.567521
Ġfor 0.73735774
Ġhis 2.1112096
Ġlover 1.5794852
. 0.3078512
ĠThe 3.113048
Ġharsher 11.924191
Ġphon 5.666012
em 0.071521975
es 0.0020978546
Ġfound 4.131859
Ġin 0.03265075
ĠYe 3.6916597
ats 0.00061609555
' 0.032198597
Ġpoem 0.07519636
, 1.9021115
Ġlike 3.1558783
Ġ" 0.5552973
heart 7.4553514
Ġbent 10.103474
" 2.2874274
Ġand 0.23816587
Ġ" 0.03884265
b 4.59926
itter 2.0219111
Ġwrong 10.027724
", 0.73113316
Ġstand 6.564962
Ġin 2.8193703
Ġstark 1.171962
Ġcontrast 0.016019274
Ġto 0.15522653
ĠShakespeare 1.4660194
's 0.01747715
Ġsoft 3.362531
ness 3.5703447
Ġand 1.3561515
Ġevoke 7.3714924
Ġa 0.51303834
Ġsense 1.1464818
Ġof 0.006401884
Ġsadness 2.3015945
Ġthat 4.0574236
Ġreflects 4.545739
Ġthe 0.8504302
Ġspeaker 0.9645655
's 0.0040315203
Ġun 5.7117906
requ 0.5885482
ited 0.002022895
Ġlove 0.32635763
. 0.8522312
ĠNonetheless 8.231654
, 0.002768611
Ġboth 1.3218842
Ġpoems 0.2501787
Ġinclude 6.8833227
Ġan 3.408155
Ġabundance 2.0943613
Ġof 0.005482157
Ġmetaphors 5.001361
. 2.714972
ĠSon 2.425093
net 0.042419605
Ġ18 0.018395104
Ġutilizes 4.5561976
Ġnatural 8.668831
Ġimagery 2.1137927
Ġwith 4.617418
Ġcomparisons 5.981564
Ġsuch 3.6846085
Ġas 0.0017819924
Ġ" 0.28424484
th 4.1283464
ou 0.46235752
Ġart 1.8348407
Ġmore 3.4370604
Ġlovely 2.1094935
Ġand 3.6747072
Ġmore 1.1004566
Ġtemper 6.7644114
ate 0.031204578
," 3.7816205
Ġwhile 1.4244868
ĠMy 0.5143989
Ġmistress 0.012611513
' 0.017002814
Ġeyes 0.010166011
Ġutilizes 2.7267995
Ġmore 2.753729
Ġabstract 3.0454376
Ġmetaphors 2.1612132
Ġsuch 2.0061567
Ġas 0.018361652
, 5.7107553
Ġ" 0.0378892
And 6.2677937
Ġher 5.5340676
Ġdark 5.931248
Ġhair 3.1622324
Ġwas 3.8614488
Ġthe 3.993616
Ġscent 7.120958
Ġof 0.06806459
Ġwild 5.5196476
Ġthy 5.0519657
me 0.008305578
". 2.6802666
ĠThese 2.5483608
Ġcomparisons 3.5164893
Ġhelp 3.9654799
Ġto 0.9521272
Ġpaint 5.379255
Ġa 0.23144548
Ġvivid 1.9472032
Ġimage 2.7259157
Ġof 0.22730984
Ġa 2.4040012
Ġmuse 5.6725974
Ġwho 2.9810414
Ġis 1.0090911
Ġboth 2.6073105
Ġstunning 7.003846
Ġand 0.55263466
Ġunforgettable 6.905761
. 0.1932406
ĠAnother 5.3167996
Ġsignificant 4.2613053
Ġdistinction 4.353768
Ġbetween 0.77928066
Ġthe 0.72947633
Ġtwo 1.1123353
Ġpoems 0.07442074
Ġis 0.38924307
Ġtheir 1.5105625
Ġsentence 7.395448
Ġstructure 0.23515582
. 0.15352045
ĠShakespeare 1.4229369
Ġemploys 4.5135756
Ġgrand 9.079301
i 1.1282248
ose 0.0008171667
Ġimagery 5.912837
, 1.836347
Ġand 4.0844426
Ġthe 2.7985218
Ġpoem 2.4858851
's 1.8912153
Ġstructure 1.457925
Ġreflects 4.1370883
Ġthis 0.4612979
. 0.78824484
ĠThe 2.2645462
Ġverses 6.9511933
Ġmove 5.479548
Ġseamlessly 4.004271
, 3.9542239
Ġwith 1.9081583
Ġeach 1.8260229
Ġline 1.6469777
Ġflowing 6.087853
Ġinto 2.2533896
Ġthe 0.12704077
Ġnext 0.05658722
, 1.6192114
Ġcreating 1.7286805
Ġa 0.38716257
Ġsense 1.8230307
Ġof 0.013857906
Ġgrand 4.2141366
eur 0.08023566
Ġand 0.66936874
Ġemphasis 7.834479
Ġon 2.8197033
Ġthe 0.6222768
Ġideas 6.3297896
Ġbeing 2.5563526
Ġexpressed 1.2977924
. 0.15217799
ĠThe 1.8399531
Ġuse 3.7517486
Ġof 0.0033707996
Ġen 6.3455505
j 0.6065263
amb 0.049243942
ment 0.59564894
Ġallows 4.509063
Ġeach 3.6544745
Ġline 0.6733769
Ġto 0.11716962
Ġread 6.914919
Ġsmoothly 5.0601315
, 1.3445808
Ġand 1.6182737
Ġeach 3.0572338
Ġclause 5.447957
Ġis 1.9731913
Ġcomplete 3.9016535
, 2.4008126
Ġmaking 4.5098615
Ġit 1.9132981
Ġeasier 1.9444916
Ġfor 1.147673
Ġthe 0.12844421
Ġreader 0.14443333
Ġto 0.012060566
Ġfollow 1.3424278
Ġthe 0.7007038
Ġdevelopment 5.8341336
Ġof 0.10973513
Ġthe 0.32771602
Ġidea 5.1858907
. 0.59507275
ĠIn 1.7596426
Ġcontrast 0.8883742
, 0.06255008
ĠYe 0.39071295
ats 0.00037326562
Ġuses 2.6609578
Ġshorter 4.1541476
Ġsentences 1.2738241
, 0.75665975
Ġallowing 4.448767
Ġhim 3.6271296
Ġto 0.030413413
Ġfit 5.539947
Ġin 2.5703332
Ġa 2.6601024
Ġlot 3.2203631
Ġof 0.34847945
Ġimagery 4.4972024
Ġand 1.3899581
Ġallow 6.5091004
Ġthe 0.6918364
Ġpoem 2.3372204
Ġto 0.073728494
Ġread 2.6386993
Ġmore 0.7627986
Ġlike 1.7424281
Ġa 0.28383678
Ġnarrative 4.021777
. 1.116317
ĠThe 2.0108182
Ġshorter 6.0733643
Ġsentences 1.2344958
Ġcreate 3.5454893
Ġa 0.35982925
Ġpause 9.138537
Ġand 2.557678
Ġallow 1.3317038
Ġthe 0.34026432
Ġreader 0.49978843
Ġto 0.09578787
Ġreflect 4.894379
Ġon 0.38419828
Ġeach 3.9409482
Ġsentence 2.2335496
Ġand 2.7156847
Ġits 2.2106671
Ġmeaning 1.2177395
. 0.3490862
ĠAdditionally 2.5947802
, 0.0017637815
Ġboth 3.3925307
Ġpoems 0.36934644
Ġpresent 5.4891524
Ġdifferent 3.083939
Ġcultural 6.377694
Ġinfluences 4.4809656
Ġthat 2.1113577
Ġmay 3.8784392
Ġhave 1.513986
Ġinformed 4.3924246
Ġtheir 0.5466
Ġcontent 3.6607828
. 0.29287556
ĠShakespeare 1.3764313
's 0.5999879
ĠSon 1.2840543
net 0.059531067
Ġ18 0.1942424
Ġis 1.1513294
Ġa 1.4716527
Ġpart 5.650525
Ġof 0.020810077
Ġa 1.035006
Ġmore 5.1765285
Ġsignificant 6.1684394
Ġcollection 4.5886207
Ġof 0.13550016
Ġson 2.7807155
nets 0.055672586
Ġthat 2.0014777
Ġwere 2.263123
Ġpublished 2.4144423
Ġin 0.8566426
Ġ16 2.399037
09 1.6650896
. 1.2948675
ĠSon 4.9865665
nets 1.0322667
Ġwere 2.1345222
Ġfirst 3.2200773
Ġwritten 2.6431303
Ġin 1.2644837
ĠItaly 3.9121792
Ġin 1.257752
Ġthe 0.24665053
Ġ13 2.742681
th 0.08613753
Ġcentury 0.11053852
Ġand 1.5280434
Ġwere 1.2204046
Ġlater 1.7526379
Ġadapted 2.4680858
Ġinto 1.4255447
ĠEnglish 1.7253627
, 2.7075088
Ġshaping 10.163233
Ġthe 0.4724481
Ġmeter 9.682451
Ġand 0.77511984
Ġrhy 1.8079684
me 0.18953131
Ġscheme 2.5124788
Ġin 3.6691444
ĠEnglish 1.8246832
Ġpoetry 0.84214574
Ġfor 2.97584
Ġyears 4.4986634
. 2.469266
ĠThe 1.9055116
Ġstructure 4.192446
Ġof 0.3564264
Ġthe 1.6621888
Ġson 1.7623554
net 0.34089082
Ġwas 1.9386213
Ġcharacter 8.9353
istically 0.5817874
Ġpatron 10.353152
ized 3.2773263
Ġby 0.7835071
Ġwealthy 4.449466
Ġpatrons 1.8545442
, 1.0252173
Ġand 1.1873624
Ġthe 1.6393195
Ġpoem 2.2356522
Ġitself 4.113233
Ġwas 0.7773049
Ġa 3.2383091
Ġreflection 3.5309463
Ġof 0.10199063
Ġintellectual 8.332412
Ġand 1.3798159
Ġsocietal 6.043779
Ġpower 5.0818696
. 0.43093398
ĠYe 3.0775952
ats 0.0006344049
, 2.652634
Ġon 0.62623703
Ġthe 0.0005105368
Ġother 0.008311886
Ġhand 0.0035177553
, 0.0013549093
Ġwas 1.6213664
Ġwriting 2.8982785
Ġat 4.5639358
Ġthe 2.2255363
Ġturn 2.1344793
Ġof 0.0045567458
Ġthe 0.013329649
Ġ20 1.341198
th 0.00095807976
Ġcentury 0.04371675
, 0.49425852
Ġduring 4.3444805
Ġthe 0.6930491
Ġera 2.8744955
Ġof 0.21560812
Ġthe 1.2166573
ĠIrish 6.8674684
ĠLiterary 4.953306
ĠRenaissance 0.49681115
. 0.70640045
ĠHis 3.028506
Ġpoetry 2.1724362
Ġwas 1.2920879
Ġinfluenced 1.760168
Ġby 0.124113955
Ġthe 1.1104947
Ġstruggle 8.661661
Ġto 2.1480427
Ġcreate 2.5449169
Ġa 0.68519443
Ġnew 1.4529035
ĠIrish 3.6203277
Ġcultural 4.589002
Ġidentity 0.211769
, 1.1138339
Ġfree 8.837863
Ġfrom 0.5812874
Ġthe 0.69041055
Ġconstraints 4.4034357
Ġof 0.13374488
ĠEnglish 2.425578
Ġcolonialism 4.4758196
. 0.6358242
ĠYe 2.9066281
ats 0.00090742746
Ġalso 3.5657854
Ġincorporated 3.548609
Ġelements 2.6108143
Ġof 0.3318764
ĠIrish 2.7257726
Ġmythology 2.8833873
Ġinto 0.925762
Ġhis 0.08840724
Ġpoetry 1.1270136
, 0.44034892
Ġwhich 2.2765398
Ġis 2.913923
Ġevident 2.0813575
Ġin 0.14750044
ĠMy 2.2654712
Ġmistress 0.016757367
' 0.027857263
Ġeyes 0.01034251
Ġwhen 6.16028
Ġhe 1.0327309
Ġrefers 2.6509283
Ġto 0.005747935
Ġhis 2.0232096
Ġ" 2.6091912
dark 3.8569183
ĠRos 10.695255
ale 7.398984
en 0.565562
." 2.2235112
ĠThe 2.229399
Ġtone 8.427781
Ġof 0.3582863
Ġthe 1.1225487
Ġpoems 1.4105564
Ġis 1.5451591
Ġalso 1.7837919
Ġreflective 3.7014318
Ġof 0.019218871
Ġthe 1.0721352
Ġdifferent 5.1990676
Ġcultural 1.1440433
Ġcontexts 2.9702954
Ġthat 1.7116711
Ġthe 3.1016042
Ġpoets 1.8048618
Ġinhabited 4.217025
. 0.4325515
ĠShakespeare 4.9477987
's 0.79135865
ĠSon 0.6078774
net 0.052634865
Ġ18 0.085870884
Ġportrays 7.187373
Ġthe 1.5828927
Ġspeaker 3.7344546
's 0.41818106
Ġadmiration 1.4452101
Ġfor 0.38738513
Ġhis 0.2457347
Ġlover 0.6332489
Ġwith 4.550189
Ġa 1.3707929
Ġsense 2.6270788
Ġof 0.0057904986
Ġcertainty 6.548819
Ġand 0.92462313
Ġgrand 7.099843
eur 0.31103873
. 0.77540165
ĠIt 3.7045999
Ġis 0.88812083
Ġalmost 5.647688
Ġas 0.8162456
Ġif 0.20614086
Ġthe 0.88195884
Ġspeaker 0.8281738
Ġis 1.1801753
Ġin 4.12055
Ġawe 1.3613813
Ġof 0.16787186
Ġthe 1.3089609
Ġbeauty 0.85232174
Ġof 0.453629
Ġhis 0.79868144
Ġsubject 6.7408123
, 1.134674
Ġand 1.0106722
Ġin 4.185913
Ġsome 3.9494565
Ġways 1.1075045
, 0.52332705
Ġit 1.8825147
Ġcould 4.2703633
Ġbe 0.18937708
Ġseen 2.1057382
Ġas 0.09244946
Ġan 1.9953228
Ġo 3.723411
de 0.13447826
Ġto 0.20436907
Ġthe 1.3511195
Ġpower 4.3726115
Ġof 0.2439474
Ġtrue 7.488021
Ġlove 0.05613542
. 0.091985516
ĠOn 5.9666996
Ġthe 0.028940627
Ġother 0.06728012
Ġhand 0.044809908
, 0.0024099932
ĠYe 1.8512886
ats 0.00079515536
' 0.15159893
ĠMy 1.7985216
Ġmistress 0.010040774
' 0.017174162
Ġeyes 0.009490218
Ġreflects 4.235271
Ġthe 1.2729225
Ġconflict 6.5243373
Ġof 1.1308705
Ġthe 2.6617029
Ġlover 5.2152305
Ġwho 3.4987378
Ġfeels 3.2562716
Ġan 4.1166873
Ġun 2.9872549
requ 0.017736662
ited 0.0006072694
Ġlove 0.36957586
, 2.68928
Ġas 3.1222196
Ġhe 1.2488898
Ġcontem 4.575253
plates 0.0015790561
Ġhis 1.0574862
Ġdesires 7.340332
Ġand 1.4576232
Ġthe 2.2623734
Ġpossibility 4.166228
Ġof 0.2800764
Ġhis 2.0282476
Ġmuse 5.567925
Ġnever 5.6466184
Ġreciproc 4.743655
ating 0.07718459
Ġhis 1.3972167
Ġpassion 3.0769687
. 0.13330719
ĠOverall 5.352882
, 0.011485022
ĠSon 3.0152493
net 0.081477255
Ġ18 0.014554011
Ġand 0.25853327
ĠMy 0.008028365
Ġmistress 0.0051915264
' 0.011555748
Ġeyes 0.006272259
Ġbeing 12.023769
Ġtwo 2.0094733
Ġlove 4.9077306
Ġpoems 0.08229014
Ġshow 7.8998694
Ġdifferent 4.5321074
Ġaspects 2.6117039
Ġof 0.037265316
Ġlove 0.80006415
Ġwhen 7.3839746
Ġcomparing 5.1769075
Ġtheir 2.3853693
Ġlinguistic 8.13405
, 2.2074158
Ġpoetic 2.3163433
, 0.093078196
Ġand 0.17937677
Ġcultural 0.9388196
Ġfeatures 4.182724
. 0.03347087
ĠThe 2.889478
Ġrhy 4.863552
me 0.21216574
, 4.792268
Ġstress 2.8764846
Ġpatterns 0.9382592
, 0.035770774
Ġsentence 3.3863213
Ġstructures 1.2890261
, 0.043468516
Ġand 0.24337678
Ġmetaphor 2.4227428
Ġusage 0.3017127
Ġprovide 4.101107
Ġa 1.0881672
Ġreliable 9.332408
Ġbasis 3.4473617
Ġfor 0.32042006
Ġcomparison 2.646845
Ġbetween 2.2864285
ĠShakespeare 3.4419103
's 0.3806724
Ġand 1.6735615
ĠYe 0.008020917
ats 0.0015761905
' 0.032979712
Ġpoems 0.7758206
. 0.25252903
ĠThe 2.9988797
Ġphon 6.4254074
em 0.104330674
es 0.0018046834
Ġand 0.41522846
Ġpatterns 0.21571335
Ġhighlight 8.00845
Ġthe 0.78228045
Ġcontrast 3.6198685
Ġin 1.7553996
Ġtone 1.0847867
Ġand 1.4428033
Ġapproach 9.107323
Ġtowards 5.341396
Ġlove 0.75546056
. 0.61935496
ĠThe 1.6219245
Ġpoems 4.0091133
Ġreflect 5.3895335
Ġthe 1.4093934
Ġsocietal 5.623483
Ġand 0.23444267
Ġcultural 0.0526076
Ġcontexts 2.8410058
Ġof 2.079197
Ġthe 1.0133137
Ġpoets 1.6854533
, 1.4930509
Ġwith 3.5022964
ĠSon 3.6511312
net 0.0265569
Ġ18 0.008054264
Ġbeing 1.4971838
Ġan 2.7018187
Ġo 0.8043197
de 0.002192173
Ġto 0.046860557
Ġlove 1.4758234
Ġand 0.7969732
ĠYe 2.5507288
ats 0.0020104146
' 1.0367975
ĠMy 2.8164356
Ġmistress 0.01717683
' 0.005264324
Ġeyes 0.034498204
Ġreflecting 2.4831
Ġthe 0.7204064
Ġconflicting 4.0807414
Ġemotions 2.5111694
Ġof 0.5251366
Ġun 4.5631533
requ 0.0031674788
ited 0.0011926383
Ġlove 0.058800865
. 0.42756256
ĠThe 2.4677954
Ġuse 2.78696
Ġof 0.00804561
Ġdifferent 5.111352
Ġlinguistic 5.9809637
Ġand 1.3336024
Ġpoetic 0.96228284
Ġfeatures 3.5445268
Ġin 1.9934049
Ġthe 1.3710796
Ġpoems 0.5605655
Ġalso 2.304627
Ġhelped 6.260466
Ġto 0.3119047
Ġenhance 5.106934
Ġtheir 0.8608618
Ġimpact 4.3660803
Ġon 1.2528843
Ġthe 0.47775546
Ġreader 0.39921677
Ġand 3.1440127
Ġcreated 5.7903767
Ġvivid 7.6036177
Ġimagery 1.9831587
Ġthat 1.433259
Ġev 5.020043
okes 0.9939292
Ġdifferent 4.7293572
Ġemotions 1.5003357
. 0.65755135
