The 2.598347
Ġchase 10.770781
Ġwas 2.9669847
Ġon 0.9149389
. 1.5757115
ĠIt 3.960146
Ġwasn 3.392061
't 0.51458126
Ġhis 6.257838
Ġfault 0.9565411
Ġthat 1.891377
Ġhe 1.3572451
Ġhad 1.8321137
Ġspilled 8.523342
Ġa 2.2006328
Ġpitcher 5.2765875
Ġof 0.089904614
Ġbeer 0.8943766
Ġon 1.0179206
Ġthe 0.97393787
Ġbig 7.296645
Ġguy 4.292063
Ġin 2.8205922
Ġthe 0.51560825
Ġbar 4.171212
. 0.6164208
ĠHe 2.0845141
Ġgot 5.175844
Ġbumped 7.269424
Ġby 2.6071682
Ġsome 4.132169
Ġguy 1.3886491
Ġat 4.02223
Ġthe 0.5742745
Ġpool 4.7733893
Ġtable 2.7331862
, 1.474505
Ġhonest 12.802014
! 3.5634656
ĠBut 2.1860409
Ġtry 9.042985
Ġtelling 3.0862322
Ġthat 0.27774894
Ġto 0.058213394
Ġol 10.718707
' 0.045878492
ĠMach 9.055569
o 0.2070865
ĠMus 9.684063
cles 0.14114557
. 0.931973
ĠDude 6.4930887
Ġstood 6.3794284
Ġup 1.0513436
Ġin 3.4743268
Ġa 2.5609841
Ġrage 2.8817527
. 2.7249584
ĠThere 5.8309517
Ġwas 0.7181353
Ġnothing 3.2474346
Ġto 3.9866104
Ġdo 1.4859806
Ġbut 0.20821096
Ġget 2.8340921
Ġout 2.557218
Ġof 0.26884577
Ġhis 2.2663517
Ġway 0.20183533
. 0.4511274
ĠAs 4.3263073
Ġhe 1.3438476
Ġexited 5.8320403
Ġthe 0.19070055
Ġestablishment 6.391349
, 0.32783657
Ġhe 0.78919876
Ġheard 4.1907115
Ġall 6.229394
Ġmanners 11.740491
Ġof 0.1061441
Ġnames 6.162298
Ġbeing 1.4426156
Ġthrown 2.202685
Ġat 1.7045445
Ġhim 0.09707366
, 1.8281678
Ġbut 1.4736502
Ġone 3.6588483
Ġthing 3.980298
Ġmattered 8.364758
: 2.0563705
Ġif 5.3717656
Ġhe 0.4155312
Ġran 4.713465
, 0.58464295
Ġhe 0.48102117
'd 0.95117563
Ġlive 6.0664153
. 1.1135082
ĠHe 2.104962
Ġjust 4.429134
Ġwanted 1.9528536
Ġto 0.22892231
Ġgo 2.7904873
Ġthere 10.7623005
Ġto 3.3345063
Ġrelax 4.2067704
Ġafter 4.634024
Ġstress 11.955653
Ġat 4.7536516
Ġwork 0.3943532
, 2.021926
Ġand 1.4322096
Ġnow 4.10966
Ġhe 0.7524754
'd 1.9808753
Ġfound 3.9346726
Ġhis 1.8445224
Ġway 2.1372259
Ġinto 2.643737
Ġmore 7.41806
Ġstress 5.239369
. 0.94725436
ĠA 5.0876274
Ġdude 7.514531
Ġwith 2.8345811
Ġhands 8.7295885
Ġthe 2.43531
Ġsize 0.035667364
Ġof 0.0060588755
Ġbowling 3.254699
Ġballs 0.5699159
Ġready 8.2001505
Ġto 0.07332165
Ġthrow 3.40567
Ġdown 4.6483674
Ġwas 2.6545408
Ġnot 4.9197726
Ġhow 6.56132
Ġhe 0.21394902
Ġwanted 0.76041037
Ġto 0.24969995
Ġdie 6.075084
. 0.29168248
ĠNot 5.1690054
Ġeven 3.8355024
Ġon 4.8677197
Ġthe 1.6856217
Ġtop 5.6174316
Ġ100 8.669099
. 3.9893563
Ġ" 4.4687204
Hey 3.3972015
! 3.0667837
ĠOver 5.878656
Ġhere 0.21626528
! 2.0818956
ĠLet 3.1518986
's 0.58129805
Ġgo 1.1546916
!" 1.0841041
ĠOh 5.5670834
, 0.85255337
Ġthank 6.3813467
Ġheaven 5.701938
, 1.9745405
Ġhis 3.7441273
Ġfriend 3.1136892
Ġhad 2.420228
Ġjust 2.8019936
Ġgotten 3.5435076
Ġback 2.0653389
Ġfrom 0.43005016
Ġhis 2.7504275
Ġerr 6.093884
ands 1.2674129
. 0.79547846
ĠJust 5.653002
Ġone 4.2096553
Ġproblem 3.6669254
Ġremained 8.229062
: 0.5071173
Ġthe 2.1957443
Ġfriend 6.810014
Ġwas 1.3939208
Ġin 3.3400917
Ġanother 5.392436
Ġparking 6.3780975
Ġlot 0.30459154
, 1.2306826
Ġhe 4.658116
Ġwas 2.1062746
Ġescaping 10.068869
Ġone 6.1479993
Ġparking 4.0855284
Ġlot 0.23789288
Ġwith 3.446813
Ġa 1.5070064
Ġbig 3.5660174
Ġman 3.8460712
Ġbehind 6.1193824
Ġhim 0.21144576
, 1.5721103
Ġand 0.27215725
Ġa 3.366865
Ġhighway 8.471595
Ġlay 7.911239
Ġbetween 1.8409134
. 2.6334229
ĠWell 4.8978353
, 0.12146515
Ġhe 2.1597612
Ġdidn 2.8089738
't 0.0011129731
Ġbecome 10.8889
Ġ# 10.121272
1 0.6854943
Ġin 1.9771707
Ġthe 1.0692198
Ġstate 4.6540275
Ġat 5.441174
ĠFro 12.9463215
gger 1.2898241
Ġfor 4.5863233
Ġnothing 1.1908631
, 2.1903124
Ġdid 2.3833263
Ġhe 0.009926207
? 0.10410437
ĠTime 6.729128
Ġfor 1.5717003
Ġthe 2.1737914
Ġcowardly 10.714402
Ġnerd 6.9431863
Ġto 0.1553384
Ġput 4.183777
Ġthose 5.4049783
Ġskills 6.038113
Ġto 0.09697337
Ġuse 1.1751527
. 0.74213225
ĠAll 5.492035
Ġwhile 6.256975
Ġthe 2.8583636
Ġinsults 11.885857
Ġand 2.1167502
Ġinsin 8.865156
uations 0.018857647
Ġflew 3.5724642
Ġfrom 4.1898746
ĠMan 9.135909
ĠMountain 8.417345
ĠMan 8.019265
iac 8.029857
Ġin 5.2594566
Ġthe 0.96655184
Ġback 2.4649813
, 3.0962856
Ġcalling 6.7795
Ġhim 0.30783117
Ġscared 10.004606
Ġand 1.6795689
Ġworthless 4.2511473
, 1.6556941
Ġhe 2.9104238
Ġbegan 5.8670983
. 8.1637125
ĠOne 4.9999447
Ġsprint 9.196984
Ġthrough 5.770669
Ġone 5.821123
Ġlane 3.2915146
, 1.1856666
Ġa 4.1624465
Ġquick 4.5645337
Ġshuffle 6.2805147
Ġleft 6.8295035
, 1.9604664
Ġto 6.599675
Ġthe 0.5395864
Ġmedian 9.394507
. 1.4952953
ĠThen 2.7663372
Ġagain 5.9859023
, 0.6044432
Ġacross 8.301724
Ġthree 5.7983704
Ġlanes 0.10003754
Ġthis 6.7287846
Ġtime 0.03352942
. 0.70748574
ĠHis 4.3431334
Ġpursu 5.8299394
er 0.7033982
Ġstumbled 6.8038692
Ġout 4.3838806
Ġafter 6.2412505
Ġhim 0.7636772
, 0.6853128
Ġbut 2.1885302
Ġdidn 3.4830234
't 0.0049748356
Ġhave 3.2686749
Ġthe 1.419743
Ġco 8.556882
- 5.812149
ord 0.20457916
ination 0.5274629
Ġfrom 8.861607
Ġhis 1.9035321
Ġearly 6.0058613
Ġdrunken 8.469725
Ġesc 5.110998
ap 0.002614237
ades 0.2867778
. 1.2317631
ĠA 4.1970677
Ġloud 5.147864
Ġhorn 5.787682
Ġand 3.9396505
Ġmetal 8.071984
Ġon 2.9521375
Ġmetal 0.19705583
Ġsoon 5.540918
Ġfollowed 1.6876537
, 1.3770926
Ġas 3.2053833
Ġtheir 4.9727197
Ġchase 3.8545513
Ġcaused 8.867318
Ġa 1.653719
Ġbad 7.2360334
Ġcrash 3.6943324
Ġin 2.6260324
Ġthe 0.33457538
Ġright 6.511991
Ġturn 3.5114677
Ġlane 0.4593494
. 0.28960034
ĠBut 4.1970525
Ġthat 2.5435004
Ġwas 1.1491879
Ġthe 2.615373
Ġbig 7.142289
Ġguy 1.3084145
's 0.45484504
Ġconcern 5.4355702
. 0.6434231
ĠHe 1.0944395
Ġhad 2.2084177
Ġmade 4.739214
Ġit 1.5561041
Ġto 0.9500186
Ġhis 2.5590827
Ġfriend 3.3026724
's 0.1835328
Ġcar 0.90038466
, 0.8275185
Ġto 6.0502543
Ġhis 2.7930286
Ġsanctuary 8.21484
, 1.0491234
Ġready 6.4725795
Ġto 0.17914209
Ġbuckle 8.638685
Ġup 0.7750208
Ġand 0.7078136
Ġget 2.9416723
Ġout 2.200324
Ġof 0.33909878
Ġdodge 4.8238254
. 0.21223122
ĠSure 6.4462504
, 1.5503165
Ġit 2.3514621
Ġwasn 2.2110991
't 0.00078060065
Ġthe 1.8113247
Ġmost 2.141883
Ġman 6.5397353
ly 0.03354797
Ġway 2.8674195
Ġto 0.21169801
Ġescape 4.196184
Ġa 1.5878644
Ġsituation 4.3150244
Ġyou 5.033422
Ġwere 1.8330462
Ġa 5.408143
Ġpart 0.23095113
Ġof 0.003194444
, 0.18366422
Ġand 3.6652796
Ġodds 9.135534
Ġare 1.5428964
Ġhe 1.7468517
Ġcould 4.4402986
Ġnever 4.077871
Ġshow 6.182309
Ġhis 1.415338
Ġface 0.47796786
Ġin 1.2076112
Ġthat 3.3923268
Ġbar 3.1581113
Ġagain 0.2932339
, 0.8712013
Ġbut 0.24149972
Ġthere 3.4948463
Ġwould 4.6485944
Ġbe 0.17576487
Ġother 3.2217877
ĠFridays 11.690288
Ġand 3.1404335
Ġother 1.0155973
Ġadventures 5.7503943
. 1.2116426
ĠHe 2.3231652
Ġdidn 3.3301778
't 0.00052878505
Ġhave 1.9663042
Ġa 2.4895227
Ġscratch 7.094196
Ġon 0.32771719
Ġhim 0.13202597
. 0.96062595
ĠIt 3.9679942
Ġwas 0.5099073
Ġtime 2.3297915
Ġto 0.24305554
Ġhead 3.6977525
Ġhome 0.7535335
. 0.63277906
ĠObs 12.02219
er 2.690709
vers 0.036833815
Ġnow 6.4005184
Ġknow 4.5340934
: 4.7762966
Ġthe 2.9324126
Ġchicken 9.465961
Ġcrossed 6.1134
Ġthe 0.2776636
Ġroad 0.37758204
Ġto 3.4974127
Ġescape 4.195618
Ġa 2.3496192
Ġbeating 7.5505533
. 0.94755757
