It 4.5131607
Ġwas 2.1794004
Ġcold 7.8434415
, 1.9169227
Ġand 2.505858
Ġdamp 6.0761137
, 0.7291002
Ġand 0.21719337
Ġmiserable 4.3839965
. 1.0834705
ĠA 3.8678844
Ġreasonably 12.143798
Ġnormal 6.4052324
Ġday 1.2639724
Ġin 1.517704
Ġthe 1.4031054
Ġsouth 5.007761
Ġeast 4.232265
Ġof 0.8118878
ĠEngland 0.7955773
Ġaround 8.808681
Ġthis 3.8435984
Ġtime 0.0563941
Ġof 0.18406373
Ġyear 0.17276005
. 0.6987104
ĠMen 8.949698
Ġand 2.1137955
Ġwomen 0.1977162
Ġin 2.9160717
Ġwhite 4.1325026
Ġoverall 4.5800476
s 0.007423389
Ġwere 2.1100721
Ġsc 5.1912804
ouring 2.4940953
Ġthe 0.3195418
Ġscene 7.6567435
Ġfor 1.4597476
Ġevidence 3.7841904
Ġwhilst 12.311133
Ġothers 2.6775277
Ġwere 1.3631546
Ġplanting 6.960749
Ġdown 6.3866634
Ġnumber 9.991691
Ġmarkers 5.550443
Ġand 2.209573
Ġtaking 4.860821
Ġphotos 2.2080264
. 0.61791104
Ġ' 7.4102755
In 5.269677
spect 2.7496672
or 0.9880701
?' 5.5331035
Ġa 3.1077218
Ġvoice 1.9538337
Ġcut 5.5355353
Ġthrough 0.53873974
Ġthe 0.16787525
Ġstill 5.0712824
Ġmist 9.066477
Ġas 3.740834
ĠGre 10.79838
aves 3.124128
Ġstomp 7.537846
ed 0.0037646436
Ġup 2.3656864
Ġthe 0.9085081
Ġhill 2.066071
Ġand 3.522937
Ġshowed 8.386037
Ġhis 1.5383399
Ġbadge 0.79867804
Ġto 0.58991426
Ġthe 0.7308695
Ġofficer 3.2951114
Ġman 6.411825
ning 0.002083698
Ġthe 0.03633278
Ġpolice 4.5985
Ġtape 2.528117
. 0.42719346
Ġ' 1.6357735
What 2.7453754
've 5.9590206
Ġwe 2.4928174
Ġgot 0.10372913
?' 0.6054006
ĠGre 4.2526503
aves 0.0010017524
Ġgr 6.809503
umbled 0.2416147
. 0.9941282
ĠThe 2.374927
Ġmorning 7.381319
Ġcoffee 8.937421
Ġnot 8.441259
Ġhaving 2.966557
Ġkicked 5.054204
Ġin 0.114062354
Ġquite 5.150558
Ġyet 0.088057116
Ġand 3.3246446
Ġhe 2.538706
Ġwas 0.6150891
Ġstill 2.3649697
Ġblinking 9.235004
Ġthe 3.8848193
Ġsleep 2.2178388
Ġout 0.5811279
Ġof 0.003821065
Ġhis 0.23931925
Ġeyes 0.05357821
. 0.93834674
Ġ' 0.8936344
Double 8.900158
Ġhomicide 6.404622
' 4.330048
Ġreplied 5.769071
Ġthe 0.12467195
Ġofficer 0.8463868
Ġ' 4.058449
Male 9.067337
Ġand 1.4433411
Ġfemale 0.07314209
Ġof 4.795344
Ġaround 4.390393
Ġthe 0.9508909
Ġages 5.127786
Ġtwenty 7.0430694
. 5.8533897
ĠWe 4.2016745
're 1.4356838
Ġstill 3.367671
Ġrunning 5.091324
Ġidentity 11.398289
Ġchecks 0.352205
Ġso 4.738927
Ġfor 6.6125455
Ġnow 1.167682
Ġthey 3.8478935
're 0.85246104
Ġjust 1.8238375
Ġgoing 3.2876015
Ġdown 4.6618767
Ġas 3.3883226
ĠJack 7.262685
Ġand 1.6523391
ĠJill 3.5239575
Ġrespectively 6.889189
. 0.895187
ĠFore 10.083876
nsics 0.011672371
Ġhasn 5.0671334
't 0.0012813801
Ġgotten 6.0123267
Ġinto 3.9259863
Ġthe 0.72761184
Ġcause 7.190653
Ġof 0.37621853
Ġdeath 0.1899897
Ġas 3.4751604
Ġthere 5.3097234
's 0.51505756
Ġno 0.9204257
Ġapparent 4.352155
Ġblood 4.6231427
Ġor 1.8067031
Ġwounds 4.4704885
Ġon 1.5418613
Ġthe 0.8617852
Ġindividuals 7.789204
Ġwhich 5.728715
Ġleads 4.2196975
Ġus 0.42228752
Ġto 0.111215115
Ġbelieve 0.8548441
Ġit 1.6488819
Ġcould 2.997377
Ġhave 0.95702875
Ġpotentially 8.573063
Ġbeen 0.1352742
Ġa 0.95444554
Ġpoisoning 8.172125
'. 3.4819376
ĠThe 2.7377384
Ġyounger 6.771512
Ġofficer 1.1659604
Ġtook 4.0718884
Ġoff 3.5731034
Ġher 4.182463
Ġcap 2.0863025
Ġand 0.3572033
Ġsmoot 6.53226
hed 0.0058732354
Ġher 0.8011418
Ġblonde 2.49334
Ġhair 0.1099556
. 2.3126645
ĠGre 2.6194441
aves 0.0023650057
Ġestimated 10.40659
Ġher 2.7584538
Ġto 2.3315048
Ġbe 0.023456318
Ġaround 0.99458486
Ġthe 2.8566272
Ġage 1.150751
Ġof 0.013423159
Ġ30 3.8369555
, 2.0271416
Ġstress 12.942603
Ġlines 3.7323408
Ġaround 2.617766
Ġher 0.08181324
Ġeyes 0.23173133
Ġsuggested 5.2259736
Ġthat 2.3592443
Ġshe 0.223604
Ġwasn 3.8775475
't 0.0012876457
Ġgetting 4.580124
Ġmuch 0.97344625
Ġsleep 0.10442602
. 1.0317198
ĠAs 5.024743
Ġthey 2.6237543
Ġapproached 2.6922443
Ġthe 0.34451672
Ġwhite 6.649452
Ġtent 5.889728
Ġcovering 6.522756
Ġthe 0.26094326
Ġbodies 3.134411
Ġthey 1.5756919
Ġwere 1.8077704
Ġintercepted 10.464764
Ġby 0.07303397
Ġa 0.8825522
Ġwell 5.1600056
Ġdressed 0.7614097
Ġgentleman 4.4028754
. 1.9677423
ĠSw 9.225066
inging 0.45616722
Ġhis 0.7853916
Ġcane 3.89121
Ġas 4.7866673
Ġhe 0.9395453
Ġwalked 1.7278455
, 2.6345928
Ġhis 3.1776197
Ġsuit 4.0750813
Ġappearing 7.6846304
Ġsurprisingly 7.172998
Ġdry 3.5494113
Ġconsidering 4.446366
Ġthe 0.5114884
Ġweather 1.653189
. 0.4046089
ĠHe 2.2706268
Ġreached 5.344078
Ġhis 4.1880736
Ġhand 0.62085086
Ġout 0.42695466
Ġto 0.74280787
Ġshake 1.7182987
Ġthe 1.9596593
ĠInspect 12.791711
ors 0.16028173
Ġand 1.781385
Ġsmiled 3.5296445
Ġa 3.5561047
Ġto 6.3595047
othy 0.06884904
, 3.9910293
Ġwell 6.638854
Ġpracticed 5.5455766
Ġgrin 2.540815
. 0.34288877
Ġ' 0.436161
Ah 5.3886557
! 4.850053
ĠInspector 3.1524916
, 2.3185682
ĠI 1.382748
Ġwas 3.0761418
Ġhoping 1.8776631
Ġto 0.8381111
Ġmeet 1.8580526
Ġyou 0.30387208
Ġbefore 4.4398656
Ġwe 1.6132808
Ġgot 3.4696271
Ġto 2.2565737
Ġthe 0.6301479
Ġuh 12.593077
... 1.2927996
' 2.1390004
ĠHe 1.8400527
Ġpaused 2.0820472
Ġfor 3.2042487
Ġa 0.2309199
Ġmoment 0.8866089
, 1.8585021
Ġhis 2.2456758
Ġeyes 1.4753163
Ġdart 3.0264068
ing 0.0010762183
Ġto 1.613075
Ġthe 0.55229884
Ġtent 5.1838355
Ġfor 4.6256876
Ġa 0.47643518
Ġsecond 1.0395741
Ġ`` 19.346712
... 2.8988376
ĠG 9.422413
rist 7.333197
ly 3.9732904
Ġdetails 9.755254
. 1.708371
ĠI 1.5746584
'll 3.5335777
Ġbe 1.253109
Ġworking 6.3188686
Ġwith 1.5004435
Ġyou 2.1331067
Ġon 2.1725547
Ġthis 0.9912679
Ġcase 2.5546489
. 1.6604874
ĠMy 5.061815
Ġname 0.52791756
's 0.9182046
ĠGregory 6.7562523
, 2.6787577
ĠGregory 3.0906122
ĠCoff 9.429474
yn 6.312263
. 0.9585773
ĠI 1.0382605
'm 0.8023216
Ġone 4.1362305
Ġof 0.02684254
Ġthe 0.21692523
ĠAb 8.81739
led 7.131817
.' 5.8873672
ĠThe 1.9885361
' 11.009538
Ab 5.1503267
led 0.036554452
' 0.24254575
Ġas 5.292396
Ġthey 2.031975
'd 4.4533634
Ġcome 2.0540206
Ġto 0.02842624
Ġhave 8.049787
Ġbeen 1.0613208
Ġknown 1.2760324
Ġwere 3.261252
Ġsomething 6.266811
Ġthat 2.9076731
Ġstill 6.8554726
Ġremained 3.3767233
Ġto 2.4281697
Ġbe 0.052421343
Ġa 6.419381
Ġmystery 0.9965312
Ġto 1.1762571
Ġmodern 4.310623
Ġscience 2.421745
. 0.36395544
ĠThroughout 9.034977
Ġhistory 1.9165437
Ġdespite 9.488411
Ġthe 1.0917926
Ġadvances 2.9156685
Ġin 0.73912966
Ġtechnology 0.5935168
, 1.5766878
Ġmedicine 6.0972524
Ġand 0.49858046
Ġthe 2.97924
Ġphysical 5.7636137
Ġsciences 0.588016
Ġthe 2.880154
ĠAb 3.340991
led 0.019774992
Ġhad 1.3393309
Ġbeen 1.8480048
Ġvery 5.8708076
Ġmuch 1.039706
Ġon 5.157892
Ġthe 0.12494233
Ġparanormal 7.447996
Ġend 3.2332058
Ġof 0.0654916
Ġthings 0.5304891
. 0.2502825
ĠU 10.187026
nex 1.1105922
pl 0.7492058
ained 0.05463027
Ġoccurrences 5.152894
Ġsuch 3.3831017
Ġas 0.0046978267
Ġfloating 7.8844757
Ġlights 3.6879823
, 1.1082163
Ġsounds 6.712779
Ġthat 2.0445468
Ġhad 4.175514
Ġno 1.2460175
Ġsource 3.6909041
Ġand 1.078324
Ġfloating 6.3490167
Ġobjects 3.2791355
Ġtended 8.196311
Ġto 0.012390615
Ġbe 1.2333887
Ġmanifestations 8.081645
Ġof 0.08848714
Ġsuch 5.8325276
Ġindividuals 6.734861
. 0.63427496
ĠThe 2.3566291
Ġmajority 5.889015
Ġof 0.07953614
Ġthem 2.7184193
Ġwere 0.99070066
Ġunable 5.8706827
Ġto 0.016350083
Ġcorrectly 9.182685
Ġatt 10.639097
une 0.2030989
Ġthemselves 1.1945466
Ġbefore 9.826369
Ġmaturity 9.523534
Ġand 1.7446492
Ġas 4.0997453
Ġa 1.2573986
Ġresult 0.104748234
Ġwere 1.8170133
Ġnever 4.6234055
Ġquite 4.3199453
Ġable 1.4837922
Ġto 0.0063784285
Ġget 4.3632574
Ġa 1.9123923
Ġgrasp 2.7328212
Ġon 0.429115
Ġtheir 1.3307997
Ġabilities 2.2182775
. 0.31260493
ĠHowever 4.5529695
Ġthose 5.246159
Ġthat 1.0374112
Ġdid 1.6459566
Ġbecame 5.5560846
Ġextraordinarily 6.460394
Ġtalented 2.7589273
Ġin 1.9355861
Ġwhatever 4.3894644
Ġspecial 6.998947
ties 1.9869617
Ġthey 0.13380225
Ġfocused 5.448599
Ġthemselves 3.1852267
Ġon 0.6069793
. 0.44059384
ĠThey 3.2398493
Ġalso 3.6368697
Ġbecame 2.8072214
Ġa 3.4322968
Ġgreat 4.126125
Ġasset 3.420832
, 5.897262
Ġor 4.390273
Ġa 2.7911146
Ġgreater 5.5472755
Ġthreat 1.4914099
. 3.8589573
Ġ' 4.5230584
Ah 4.953299
!' 3.298421
ĠSm 6.870925
iled 1.732578
ĠGre 2.5814092
aves 0.00090504135
Ġ' 2.262086
and 7.904148
Ġwhat 3.2612913
's 2.2016633
Ġyour 1.4332485
Ġpar 10.504793
lor 3.9296303
Ġtrick 2.3364265
? 2.128724
'. 6.5184593
ĠGregory 2.6024213
Ġraised 5.728633
Ġan 0.90931946
Ġeyebrow 0.06644454
Ġand 1.9668543
Ġpurs 7.1185684
ed 0.0027374122
Ġhis 0.027090171
Ġlips 0.04595275
Ġas 2.3630166
Ġhe 0.32574123
Ġassessed 7.1095557
Ġthe 0.52276736
Ġdetective 6.0008287
. 0.5148577
ĠHe 2.954356
Ġstared 6.962041
Ġat 0.7837212
ĠGre 0.72527987
aves 0.0003464352
Ġfor 1.0571184
Ġa 0.14160118
Ġmoment 0.8383191
Ġbefore 0.94416493
Ġfinally 4.2798595
, 6.0314164
Ġalmost 4.7977285
Ġreluctantly 3.6927247
Ġadmitting 6.173143
Ġ' 2.1197913
I 1.2575381
'm 1.2763307
Ġgood 4.700176
Ġwith 3.1915352
Ġtime 6.287966
'. 3.6086688
ĠGre 1.0788773
aves 0.00091136596
Ġmade 5.7074604
Ġa 0.36049044
Ġface 1.8715029
Ġ' 3.475552
Time 5.427012
?' 1.8867637
Ġhe 1.9440715
Ġasked 1.2830119
Ġapparently 10.734686
Ġun 3.639409
imp 1.3915374
ressed 0.0025004584
Ġat 3.9165874
Ġthe 0.7280817
Ġexplanation 4.1009808
. 0.20933087
Ġ' 0.40335768
Can 5.5117145
Ġyou 0.5686058
Ġmaybe 7.1104107
Ġun 8.173612
pack 2.5384593
Ġthat 2.2405012
Ġfor 3.2969432
Ġme 0.07870909
? 1.6172622
ĠUs 9.486377
Ġnormal 5.369441
Ġfolk 2.8854055
Ġdon 2.1085203
't 0.002201491
Ġquite 4.8914003
Ġunderstand 1.3713044
Ġwhatever 9.718435
Ġwitchcraft 11.800942
, 4.8242245
Ġsorcery 2.3687408
Ġor 0.98111665
Ġmagic 3.1659355
Ġyou 2.9636111
Ġmight 3.4949758
Ġdo 4.8917828
'. 2.5974271
ĠGregory 1.7060009
Ġshifted 6.9104295
Ġuncom 1.9761434
fort 0.0003218097
ably 0.0015758311
Ġand 2.2637649
Ġlooked 2.5772626
Ġdown 1.8818998
Ġat 0.4151461
Ġhis 0.5869095
Ġshoes 1.6078804
Ġwhilst 6.362389
Ġtapping 5.11363
Ġhis 0.5193694
Ġcane 0.12483618
Ġon 1.3551702
Ġthe 0.036075123
Ġgrass 3.9988008
. 0.37693262
ĠHe 1.7895272
Ġpulled 4.3829923
Ġout 1.1195037
Ġa 0.40022883
Ġpair 4.133751
Ġof 0.048441987
Ġgloves 2.730142
Ġfrom 1.8853298
Ġhis 0.4034959
Ġpocket 0.97741616
, 2.5389194
Ġrunes 13.892693
Ġse 4.319964
wn 0.08902439
Ġinto 0.60494304
Ġthe 0.55340034
Ġfabric 1.843198
. 0.8209621
ĠGold 12.555906
Ġthread 4.7533107
Ġwe 9.165744
aved 0.049725372
Ġinto 2.0840337
Ġthe 0.3680682
Ġsoft 7.2794037
Ġleather 2.1724875
Ġforming 7.97648
Ġintricate 3.692059
Ġsymbols 4.265516
Ġof 3.3356597
Ġpower 4.61965
Ġthat 2.945799
Ġhelped 8.040388
Ġthe 2.7491663
ĠAb 1.0534488
led 0.008547454
Ġfocus 4.2314343
Ġtheir 1.0966828
Ġtalents 4.961908
. 0.61015064
Ġ' 1.0033158
How 4.971983
Ġabout 2.2478247
Ġwe 2.9472952
Ġget 2.183886
Ġto 2.2735493
Ġit 3.228502
Ġand 3.9396467
ĠI 2.5423977
'll 0.40540946
Ġdemonstrate 5.2524247
Ġas 6.5778794
Ġwe 1.632684
Ġgo 0.26044238
' 2.6859317
ĠS 9.591792
ighed 1.0383233
ĠGregory 2.2926044
Ġas 2.5159647
Ġhe 0.33123195
Ġlifted 5.544502
Ġhis 1.0451218
Ġcane 1.8942374
Ġto 2.1033354
Ġindicate 5.5711355
Ġthe 1.0393268
Ġtent 3.5825987
Ġ' 4.1986256
after 8.271398
Ġyou 1.6108267
'. 3.0172708
ĠGre 0.3364817
aves 0.00086924585
Ġgrun 5.6239605
ted 0.0022333318
Ġand 1.5189977
Ġstomp 6.7331834
ed 0.0020045012
Ġover 3.3172784
Ġto 0.16324419
Ġthe 0.21416755
Ġtent 0.23383257
. 1.335541
ĠHe 1.9961584
Ġlifted 5.3171806
Ġup 2.471024
Ġthe 0.52037287
Ġcanvas 3.9213266
Ġflap 1.2356998
Ġand 0.47014835
Ġstepped 3.2990575
Ġinside 0.74384075
. 0.63847816
Ġ( 9.315984
ĠI 6.684684
'll 3.5129676
Ġprobably 4.973024
Ġfinish 6.814251
Ġthis 1.139696
Ġup 3.0376577
Ġwhen 3.5381584
ĠI 0.5630507
Ġget 0.80384296
Ġhome 1.1333579
Ġfrom 3.1447086
Ġwork 0.33512732
) 2.3868687
